 2 Mo0.5b2                              
   1.0000000000000000     
     6.0780000686999998    0.0000000000000000    0.0000000000000000
    -3.0390007352000001    5.2637020589999999    0.0000000000000000
     0.0000000000000000    0.0000000000000000   22.2200002669999996
   Mo   V    B 
     8     6    40
Direct
  0.9996628801339185  0.9999801396815712  0.2059152717307454
  0.9996649367308797  0.9999873721562524  0.4818751875328254
  0.9996693781512287  0.9999855394074372  0.0695695143858572
  0.9996661930254925  0.9999869572495270  0.3464353273479243
  0.4996671426573289  0.4999709393202449  0.2059150257283294
  0.4996758881590090  0.4999716507926054  0.4818688121546068
  0.4996746795538279  0.4999746150237317  0.0695717413419181
  0.4996727728169773  0.4999748185923139  0.3464355883596543
  0.9996749700515383  0.4999804335156848  0.0704558013094363
  0.9996792655594351  0.4999798548952528  0.3450878754129842
  0.4996469792443627  0.9999817484555290  0.2073653910906052
  0.4996684502269467  0.9999772404623313  0.4893575481673033
  0.4996477988380338  0.9999692105148369  0.0691990707021099
  0.4996628569463912  0.9999734888452239  0.3456414269301710
  0.1654231558670870  0.3342289718218129  0.9972438795146206
  0.1682694916295645  0.3314051643791912  0.5558735724707720
  0.1620296688058198  0.3376193505676386  0.2747484387873191
  0.1610349576447351  0.3385754795346304  0.1385674073489115
  0.1595367999677916  0.3400937671096997  0.4169863318344017
  0.8339120741173399  0.6657307608060589  0.9972469831665896
  0.8310842399252379  0.6685548476742997  0.5558746734463973
  0.8373077932293622  0.6623459692137035  0.2747490927670576
  0.8382718555512820  0.6613610918250545  0.1385677156191239
  0.8397917723038041  0.6598527512615515  0.4169868031594270
  0.6654591201431291  0.8341799763745664  0.9974222973626170
  0.6672103957168980  0.8324301355212489  0.5517829388453250
  0.6637778117272478  0.8358711926794732  0.2756682004408420
  0.6628944648313431  0.8367488705248595  0.1368237136044707
  0.6629473423875901  0.8367102078245801  0.4143176249892014
  0.3338674803698244  0.1657747403974708  0.9974200478283844
  0.3321406050427526  0.1675303638420832  0.5517814147402033
  0.3355500218563494  0.1640936045201293  0.2756694062692781
  0.3364259339691218  0.1632101721876885  0.1368218978960764
  0.3363938517557145  0.1632543981701154  0.4143148679897743
  0.1671155060707777  0.8320105231790559  0.9983641263251050
  0.1625592934448169  0.8271391999209668  0.5516304845127203
  0.1668871493601820  0.8281609907925943  0.2746984781897930
  0.1674645476752004  0.8282129761697811  0.1382556544974646
  0.1683886021139815  0.8291272945014413  0.4164615798961248
  0.8322154040561338  0.1679394598507159  0.9983626001374747
  0.8368000804298986  0.1728400414642473  0.5516266397912963
  0.8324361624797491  0.1717920247428956  0.2746999132578765
  0.8318757607037787  0.1717219039934838  0.1382566864471909
  0.8309589255600185  0.1708120912109546  0.4164608440499385
  0.6676359495523685  0.3325231171465083  0.9983646981320177
  0.6725022232189497  0.3370834395515806  0.5516352363165556
  0.6714808201771930  0.3327658706750845  0.2746965874469531
  0.6714099981448181  0.3322153067755900  0.1382577634929296
  0.6705045914102508  0.3312919059765310  0.4164620686367842
  0.3317022641085020  0.6674300014029076  0.9983614384816596
  0.3268424028105857  0.6628823609409704  0.5516361624638386
  0.3278551477262417  0.6671948551641598  0.2746961019887216
  0.3279007338302866  0.6677592862936444  0.1382588933823443
  0.3288137292872607  0.6686892953649711  0.4164639108776541

  0.00000000E+00  0.00000000E+00  0.00000000E+00
  0.00000000E+00  0.00000000E+00  0.00000000E+00
  0.00000000E+00  0.00000000E+00  0.00000000E+00
  0.00000000E+00  0.00000000E+00  0.00000000E+00
  0.00000000E+00  0.00000000E+00  0.00000000E+00
  0.00000000E+00  0.00000000E+00  0.00000000E+00
  0.00000000E+00  0.00000000E+00  0.00000000E+00
  0.00000000E+00  0.00000000E+00  0.00000000E+00
  0.00000000E+00  0.00000000E+00  0.00000000E+00
  0.00000000E+00  0.00000000E+00  0.00000000E+00
  0.00000000E+00  0.00000000E+00  0.00000000E+00
  0.00000000E+00  0.00000000E+00  0.00000000E+00
  0.00000000E+00  0.00000000E+00  0.00000000E+00
  0.00000000E+00  0.00000000E+00  0.00000000E+00
  0.00000000E+00  0.00000000E+00  0.00000000E+00
  0.00000000E+00  0.00000000E+00  0.00000000E+00
  0.00000000E+00  0.00000000E+00  0.00000000E+00
  0.00000000E+00  0.00000000E+00  0.00000000E+00
  0.00000000E+00  0.00000000E+00  0.00000000E+00
  0.00000000E+00  0.00000000E+00  0.00000000E+00
  0.00000000E+00  0.00000000E+00  0.00000000E+00
  0.00000000E+00  0.00000000E+00  0.00000000E+00
  0.00000000E+00  0.00000000E+00  0.00000000E+00
  0.00000000E+00  0.00000000E+00  0.00000000E+00
  0.00000000E+00  0.00000000E+00  0.00000000E+00
  0.00000000E+00  0.00000000E+00  0.00000000E+00
  0.00000000E+00  0.00000000E+00  0.00000000E+00
  0.00000000E+00  0.00000000E+00  0.00000000E+00
  0.00000000E+00  0.00000000E+00  0.00000000E+00
  0.00000000E+00  0.00000000E+00  0.00000000E+00
  0.00000000E+00  0.00000000E+00  0.00000000E+00
  0.00000000E+00  0.00000000E+00  0.00000000E+00
  0.00000000E+00  0.00000000E+00  0.00000000E+00
  0.00000000E+00  0.00000000E+00  0.00000000E+00
  0.00000000E+00  0.00000000E+00  0.00000000E+00
  0.00000000E+00  0.00000000E+00  0.00000000E+00
  0.00000000E+00  0.00000000E+00  0.00000000E+00
  0.00000000E+00  0.00000000E+00  0.00000000E+00
  0.00000000E+00  0.00000000E+00  0.00000000E+00
  0.00000000E+00  0.00000000E+00  0.00000000E+00
  0.00000000E+00  0.00000000E+00  0.00000000E+00
  0.00000000E+00  0.00000000E+00  0.00000000E+00
  0.00000000E+00  0.00000000E+00  0.00000000E+00
  0.00000000E+00  0.00000000E+00  0.00000000E+00
  0.00000000E+00  0.00000000E+00  0.00000000E+00
  0.00000000E+00  0.00000000E+00  0.00000000E+00
  0.00000000E+00  0.00000000E+00  0.00000000E+00
  0.00000000E+00  0.00000000E+00  0.00000000E+00
  0.00000000E+00  0.00000000E+00  0.00000000E+00
  0.00000000E+00  0.00000000E+00  0.00000000E+00
  0.00000000E+00  0.00000000E+00  0.00000000E+00
  0.00000000E+00  0.00000000E+00  0.00000000E+00
  0.00000000E+00  0.00000000E+00  0.00000000E+00
  0.00000000E+00  0.00000000E+00  0.00000000E+00
