B2 Mo                                   
   1.0000000000000000     
     6.0880553824745878   -0.0037616766839105    0.0000000000000000
    -3.0472861005653886    5.2705293767265040    0.0000000000000000
     0.0000000000000000    0.0000000000000000    6.2408206786816347
        B 
        16
Direct
  0.1651624125622669  0.3262322290593072  0.2585963401415645
  0.1651624125622669  0.3262322290593072  0.7414036403003345
  0.1620659102131619  0.8379340570130036  0.2545273901766581
  0.1620659102131619  0.8379340570130036  0.7454725902652410
  0.6652590710460059  0.3347409372942876  0.2534515502525667
  0.6652590710460059  0.3347409372942876  0.7465484301893324
  0.6737677516928727  0.8348375822520150  0.2585963401415644
  0.6737677516928727  0.8348375822520150  0.7414036403003345
  0.3262321931802588  0.1651623905807957  0.2585963401415644
  0.3262321931802588  0.1651623905807957  0.7414036403003345
  0.3347408903770728  0.6652589903231929  0.2534515502525667
  0.3347408903770728  0.6652589903231929  0.7465484301893324
  0.8379339561802048  0.1620659158198070  0.2545273901766581
  0.8379339561802048  0.1620659158198070  0.7454725902652410
  0.8348375097031925  0.6737676985581734  0.2585963401415644
  0.8348375097031925  0.6737676985581734  0.7414036403003345


