B2 Mo                                   
   1.0000000000000000     
     6.0715007781999999    0.0000000000000000    0.0000000000000000
    -3.0336328745999999    5.2592958921999999    0.0000000000000000
     0.0000000000000000    0.0000000000000000   25.8633270264000004
   Mo   V    B    H 
    12     4    34     1
Direct
  0.0007975555024567 -0.0007946525575907  0.0691756678810403
  0.0054241542422970 -0.0054052093880326  0.3101916568655947
  0.0012424236195734  0.5043234366077217  0.1878097337155678
  0.0082530358432948  0.5084278665867831  0.4351830901890222
  0.9997603228436035  0.4997032394255174  0.0659561748342898
 -0.0035251528641134  0.4939271712636969  0.3083564079237655
  0.4956818685143244 -0.0012371194887552  0.1878095781021059
  0.4915977310070227 -0.0082262587079270  0.4351832525652973
  0.5002979424218360  0.0002406825440947  0.0659563368474020
  0.5060844582294526  0.0035386558465308  0.3083572588253365
  0.5006283388381255  0.4993763599185813  0.1873597505537519
  0.5039772085043052  0.4960507162714696  0.4332960484919295
 -0.0040363697516387  0.0040379305758410  0.1870213587213599
 -0.0050420531206273  0.0050748913109993  0.4327475499703881
  0.4997307179715668  0.5002705561112096  0.0695713714514104
  0.4943170577600833  0.5056966671502684  0.3093756671255112
  0.1674345158494062  0.3313130357036251  0.2480014117704248
  0.1651724527950421  0.3299873484254769  0.4959156944554609
  0.1662162270001348  0.3312459884951017  0.1235888511888058
  0.1672098235615014  0.3330523664397474  0.3729449430014759
  0.1646638262092600  0.8353457283277734  0.2471375239593182
  0.1647338343809970  0.8353004391227179  0.4991263457405336
  0.1655834181108613  0.8344187488891793  0.1239894270834902
  0.1659713462215316  0.8340534391449053  0.3738483016581294
  0.6625676332044370  0.3374366243217146  0.0173319369963736
  0.6667131118709517  0.3333166615160307  0.4981304950386091
  0.6647503816848306  0.3352601873907763  0.2495185164837346
  0.6652463899029450  0.3347563860184239  0.1253658802720597
  0.6657339504396592  0.3342897316019113  0.3728363514345993
  0.6686956882544796  0.8325747437702608  0.2480013290290739
  0.6700430655941229  0.8348530341426189  0.4959154478805203
  0.6687566607334046  0.8337862025612774  0.1235884798521074
  0.6669731805082938  0.8328170525163330  0.3729442437151387
  0.3316275486367580  0.1682228932302667  0.2481400698742462
  0.3322986967606994  0.1678955555456440  0.4963486377174743
  0.3310781612770604  0.1664375057738074  0.1235931135722841
  0.3329256212177434  0.1669389410492003  0.3729186126898330
  0.3396440059475105  0.6603582489382048  0.0175168964842152
  0.3336999588159009  0.6663351785996524  0.4997335545269703
  0.3348799631711079  0.6651305918052183  0.2496218881919400
  0.3345444849848827  0.6654577374128589  0.1253888835753220
  0.3341513554467879  0.6658771718269871  0.3722480353122412
  0.8347901521368302  0.1652181019194369  0.2468541748581672
  0.8337053136195320  0.1663252478548964  0.4967351252891787
  0.8341443994071325  0.1658581344444067  0.1239663139702322
  0.8337566778180501  0.1662740440990834  0.3744746957007398
  0.8317870671981230  0.6683825797301177  0.2481406581081242
  0.8321386863063581  0.6677357435819499  0.4963475479564072
  0.8335650171416648  0.6689242810161287  0.1235930371344640
  0.8330879672717640  0.6671004382670603  0.3729192968088922
  0.2495700512777432  0.7504439168630804  0.5389780885239709

  0.00000000E+00  0.00000000E+00  0.00000000E+00
  0.00000000E+00  0.00000000E+00  0.00000000E+00
  0.00000000E+00  0.00000000E+00  0.00000000E+00
  0.00000000E+00  0.00000000E+00  0.00000000E+00
  0.00000000E+00  0.00000000E+00  0.00000000E+00
  0.00000000E+00  0.00000000E+00  0.00000000E+00
  0.00000000E+00  0.00000000E+00  0.00000000E+00
  0.00000000E+00  0.00000000E+00  0.00000000E+00
  0.00000000E+00  0.00000000E+00  0.00000000E+00
  0.00000000E+00  0.00000000E+00  0.00000000E+00
  0.00000000E+00  0.00000000E+00  0.00000000E+00
  0.00000000E+00  0.00000000E+00  0.00000000E+00
  0.00000000E+00  0.00000000E+00  0.00000000E+00
  0.00000000E+00  0.00000000E+00  0.00000000E+00
  0.00000000E+00  0.00000000E+00  0.00000000E+00
  0.00000000E+00  0.00000000E+00  0.00000000E+00
  0.00000000E+00  0.00000000E+00  0.00000000E+00
  0.00000000E+00  0.00000000E+00  0.00000000E+00
  0.00000000E+00  0.00000000E+00  0.00000000E+00
  0.00000000E+00  0.00000000E+00  0.00000000E+00
  0.00000000E+00  0.00000000E+00  0.00000000E+00
  0.00000000E+00  0.00000000E+00  0.00000000E+00
  0.00000000E+00  0.00000000E+00  0.00000000E+00
  0.00000000E+00  0.00000000E+00  0.00000000E+00
  0.00000000E+00  0.00000000E+00  0.00000000E+00
  0.00000000E+00  0.00000000E+00  0.00000000E+00
  0.00000000E+00  0.00000000E+00  0.00000000E+00
  0.00000000E+00  0.00000000E+00  0.00000000E+00
  0.00000000E+00  0.00000000E+00  0.00000000E+00
  0.00000000E+00  0.00000000E+00  0.00000000E+00
  0.00000000E+00  0.00000000E+00  0.00000000E+00
  0.00000000E+00  0.00000000E+00  0.00000000E+00
  0.00000000E+00  0.00000000E+00  0.00000000E+00
  0.00000000E+00  0.00000000E+00  0.00000000E+00
  0.00000000E+00  0.00000000E+00  0.00000000E+00
  0.00000000E+00  0.00000000E+00  0.00000000E+00
  0.00000000E+00  0.00000000E+00  0.00000000E+00
  0.00000000E+00  0.00000000E+00  0.00000000E+00
  0.00000000E+00  0.00000000E+00  0.00000000E+00
  0.00000000E+00  0.00000000E+00  0.00000000E+00
  0.00000000E+00  0.00000000E+00  0.00000000E+00
  0.00000000E+00  0.00000000E+00  0.00000000E+00
  0.00000000E+00  0.00000000E+00  0.00000000E+00
  0.00000000E+00  0.00000000E+00  0.00000000E+00
  0.00000000E+00  0.00000000E+00  0.00000000E+00
  0.00000000E+00  0.00000000E+00  0.00000000E+00
  0.00000000E+00  0.00000000E+00  0.00000000E+00
  0.00000000E+00  0.00000000E+00  0.00000000E+00
  0.00000000E+00  0.00000000E+00  0.00000000E+00
  0.00000000E+00  0.00000000E+00  0.00000000E+00
  0.00000000E+00  0.00000000E+00  0.00000000E+00
