B2 V
1.0
        2.9800000191         0.0000000000         0.0000000000
       -1.4900000095         2.5807557198         0.0000000000
        0.0000000000         0.0000000000         3.0499999523
    V    B
    1    2
Cartesian
     0.000000000         0.000000000         0.000000000
     0.000000000         1.720503807         1.524999976
     1.489999890         0.860251844         1.524999976
