B2 Mo                                   
   1.0000000000000000     
     6.0425882339000001    0.0000000000000000    0.0000000000000000
    -3.0210584412000001    5.2331368390000002    0.0000000000000000
     0.0000654718000000    0.0000737958000000   23.4135704038000014
   Mo   V    B    H 
     6     8    40     4
Direct
  0.0000256223061306  0.0002628914931259  0.0695110687187950
  0.0013344077946438  0.0010411449734556  0.3294005027444311
  0.5005988623724760  0.5005817014889273  0.1982199613039700
  0.5019660019605384  0.5016589634589903  0.4561194767564681
  0.4999485354806660  0.5001999577876115  0.0691514103548926
  0.5017037315959400  0.5013839669390798  0.3304703634855108
  0.0006414984494641  0.5006143635615300  0.1991772638563788
  0.0022295169929315  0.5018072139687683  0.4603767073060938
  0.9999943465969522  0.5002325975580543  0.0689073597944379
  0.0015014304914765  0.5012645883019693  0.3302058674908553
  0.5006691695439762  0.0006301938038297  0.1991837099277979
  0.5020394002773315  0.0016408280401547  0.4604374222091592
  0.4999329055073057  0.0002213088122393  0.0689090735693082
  0.5015632837003368  0.0012405003736744  0.3302204568151198
  0.1656436746792694  0.3341981921877939  0.0002096445278625
  0.1753120600840619  0.3382611956427332  0.5258304903765844
  0.1626363041889426  0.3311357393351352  0.2622359349308495
  0.1609796804197777  0.3299312201886364  0.1356431758297690
  0.1597983298907160  0.3264074627260648  0.3988678180335644
  0.8339897070372252  0.6660816688553798  0.0002055331876292
  0.8294940943083550  0.6654533941959005  0.5257695460002373
  0.8396373888800979  0.6707757141070452  0.2621583772660670
  0.8394177782200745  0.6707137399640247  0.1355991624171889
  0.8439656205847510  0.6766743437063776  0.3989128846490965
  0.6657621848697786  0.8343127860857008  0.0002097395115498
  0.6659391262844947  0.8290630856505096  0.5258736523650311
  0.6709968155245500  0.8394338310197006  0.2621706176978403
  0.6705346098120870  0.8395568097021625  0.1355964271171899
  0.6770287958211114  0.8436345850702460  0.3989267544016078
  0.3338767203156525  0.1659615073587181  0.0002074753858545
  0.3388922009757180  0.1746664027371999  0.5258219276096611
  0.3313593220927487  0.1624404954151364  0.2622448309373239
  0.3297523634792145  0.1611184568690651  0.1356510340381305
  0.3267377569445634  0.1594580258317854  0.3989064749155267
  0.1672241052206948  0.8326971686451340  0.0013158722345477
  0.1665711208118890  0.8374684808512513  0.5246430542180092
  0.1674280188941399  0.8345920047953918  0.2623308899182405
  0.1668248423214437  0.8337359545988594  0.1355635840814385
  0.1695519605960027  0.8339374561350235  0.3985418280594397
  0.8323802435309776  0.1675387931458075  0.0013143422143165
  0.8381767250401833  0.1661742082276279  0.5247107400386098
  0.8348277293725681  0.1671899190550022  0.2623204377040962
  0.8335640134323157  0.1670004263666489  0.1355456613653270
  0.8342519947917330  0.1691678451623305  0.3985505174427971
  0.6674565775510637  0.3324912023336102  0.0014405632325979
  0.6743708902499511  0.3300806724644058  0.5282777200449209
  0.6700573463392983  0.3319837007895530  0.2640742523592252
  0.6695143149366838  0.3309947019353023  0.1327692144747623
  0.6703405426253692  0.3330218334872722  0.3953860488521968
  0.3321675026864805  0.6677705203109553  0.0014466573529252
  0.3304258230395944  0.6736643654593858  0.5283758550603753
  0.3322043678433247  0.6698513220870521  0.2640919470223728
  0.3308254378626014  0.6696736663373778  0.1327809340396921
  0.3333920658093368  0.6700238214648627  0.3953776226483282
  0.2400051404528733  0.7635885918848633  0.5707906158014346
  0.2692387842366511  0.2680169943339163  0.5707249343557268
  0.7648466625059138  0.2409550886987086  0.5707562867053345
  0.7355134631061343  0.7343286206690071  0.5707518381141555

  0.00000000E+00  0.00000000E+00  0.00000000E+00
  0.00000000E+00  0.00000000E+00  0.00000000E+00
  0.00000000E+00  0.00000000E+00  0.00000000E+00
  0.00000000E+00  0.00000000E+00  0.00000000E+00
  0.00000000E+00  0.00000000E+00  0.00000000E+00
  0.00000000E+00  0.00000000E+00  0.00000000E+00
  0.00000000E+00  0.00000000E+00  0.00000000E+00
  0.00000000E+00  0.00000000E+00  0.00000000E+00
  0.00000000E+00  0.00000000E+00  0.00000000E+00
  0.00000000E+00  0.00000000E+00  0.00000000E+00
  0.00000000E+00  0.00000000E+00  0.00000000E+00
  0.00000000E+00  0.00000000E+00  0.00000000E+00
  0.00000000E+00  0.00000000E+00  0.00000000E+00
  0.00000000E+00  0.00000000E+00  0.00000000E+00
  0.00000000E+00  0.00000000E+00  0.00000000E+00
  0.00000000E+00  0.00000000E+00  0.00000000E+00
  0.00000000E+00  0.00000000E+00  0.00000000E+00
  0.00000000E+00  0.00000000E+00  0.00000000E+00
  0.00000000E+00  0.00000000E+00  0.00000000E+00
  0.00000000E+00  0.00000000E+00  0.00000000E+00
  0.00000000E+00  0.00000000E+00  0.00000000E+00
  0.00000000E+00  0.00000000E+00  0.00000000E+00
  0.00000000E+00  0.00000000E+00  0.00000000E+00
  0.00000000E+00  0.00000000E+00  0.00000000E+00
  0.00000000E+00  0.00000000E+00  0.00000000E+00
  0.00000000E+00  0.00000000E+00  0.00000000E+00
  0.00000000E+00  0.00000000E+00  0.00000000E+00
  0.00000000E+00  0.00000000E+00  0.00000000E+00
  0.00000000E+00  0.00000000E+00  0.00000000E+00
  0.00000000E+00  0.00000000E+00  0.00000000E+00
  0.00000000E+00  0.00000000E+00  0.00000000E+00
  0.00000000E+00  0.00000000E+00  0.00000000E+00
  0.00000000E+00  0.00000000E+00  0.00000000E+00
  0.00000000E+00  0.00000000E+00  0.00000000E+00
  0.00000000E+00  0.00000000E+00  0.00000000E+00
  0.00000000E+00  0.00000000E+00  0.00000000E+00
  0.00000000E+00  0.00000000E+00  0.00000000E+00
  0.00000000E+00  0.00000000E+00  0.00000000E+00
  0.00000000E+00  0.00000000E+00  0.00000000E+00
  0.00000000E+00  0.00000000E+00  0.00000000E+00
  0.00000000E+00  0.00000000E+00  0.00000000E+00
  0.00000000E+00  0.00000000E+00  0.00000000E+00
  0.00000000E+00  0.00000000E+00  0.00000000E+00
  0.00000000E+00  0.00000000E+00  0.00000000E+00
  0.00000000E+00  0.00000000E+00  0.00000000E+00
  0.00000000E+00  0.00000000E+00  0.00000000E+00
  0.00000000E+00  0.00000000E+00  0.00000000E+00
  0.00000000E+00  0.00000000E+00  0.00000000E+00
  0.00000000E+00  0.00000000E+00  0.00000000E+00
  0.00000000E+00  0.00000000E+00  0.00000000E+00
  0.00000000E+00  0.00000000E+00  0.00000000E+00
  0.00000000E+00  0.00000000E+00  0.00000000E+00
  0.00000000E+00  0.00000000E+00  0.00000000E+00
  0.00000000E+00  0.00000000E+00  0.00000000E+00
  0.00000000E+00  0.00000000E+00  0.00000000E+00
  0.00000000E+00  0.00000000E+00  0.00000000E+00
  0.00000000E+00  0.00000000E+00  0.00000000E+00
  0.00000000E+00  0.00000000E+00  0.00000000E+00
