B2 V                                    
   1.0000000000000000     
     2.9963302141883434    0.0000000000005072   -0.0000000000000000
    -1.4981651070434587    2.5948980835945767   -0.0000000000000000
    -0.0000000000000000   -0.0000000000000000    3.0253494187375662
   V    B 
     1     2
Direct
  0.0000000000000000  0.0000000000000000  0.0000000000000000
  0.3333333321209508  0.6666666642642696  0.4999999999508162
  0.6666666144153908  0.3333333090768704  0.4999999999508162

  0.00000000E+00  0.00000000E+00  0.00000000E+00
  0.00000000E+00  0.00000000E+00  0.00000000E+00
  0.00000000E+00  0.00000000E+00  0.00000000E+00
