MoVB2                                   
   1.0000000000000000     
    10.3670539856000001    0.0000000000000000    0.0000000000000000
     0.0000000000000000   24.2804012299000007    0.0000000000000000
     0.0000000000000000    0.0000000000000000    6.1360545157999997
   Mo   V    B 
    12    12    48
Direct
 -0.0000075376084136  0.0043361523253171 -0.0000000000000000
  0.0000021645975608  0.2514478385431443 -0.0000000000000000
  0.4999828726311425  0.1242378492110072 -0.0000000000000000
  0.0000171273881487  0.1242378492110072 -0.0000000000000000
  0.5000075376277050  0.0043361523253171 -0.0000000000000000
  0.4999978227855520  0.2514478385431443 -0.0000000000000000
  0.7499999999807088  0.0620000373369325  0.5000000000162999
  0.7499999999807088  0.3091175659760812  0.5000000000162999
  0.2499999999614175  0.1891677364006396  0.5000000000162999
  0.2499999999614175  0.0619262157004689  0.5000000000162999
  0.2499999999614175  0.3090544992407897  0.5000000000162999
  0.7499999999807088  0.1892148049193021  0.5000000000162999
 -0.0000349336088012  0.0061313317559595  0.5000000000162999
  0.0000338508390140  0.2503009646962645  0.5000000000162999
  0.4999951192327730  0.1250842070056643  0.5000000000162999
  0.0000048807865184  0.1250842070056643  0.5000000000162999
  0.5000349336280924  0.0061313317559595  0.5000000000162999
  0.4999661492188597  0.2503009646962645  0.5000000000162999
  0.7499999999807088  0.0631986291274028 -0.0000000000000000
  0.7499999999807088  0.3073254568979650 -0.0000000000000000
  0.2499999999614175  0.1883275578162442 -0.0000000000000000
  0.2499999999614175  0.0631307027079725 -0.0000000000000000
  0.2499999999614175  0.3073176742342835 -0.0000000000000000
  0.7499999999807088  0.1883912953510725 -0.0000000000000000
  0.9157708976980259  0.0608272709966059  0.2537309298373402
  0.9157708976980259  0.0608272709966059  0.7462690508016847
  0.9190791748173270  0.3165354545276852  0.2549434085965727
  0.9190791748173270  0.3165354545276852  0.7450566302231624
  0.4167001873567345  0.1883891045900518  0.2529129652784908
  0.4167001873567345  0.1883891045900518  0.7470870153605340
  0.0832998874186087  0.1883891045900518  0.2529129652784908
  0.0832998874186087  0.1883891045900518  0.7470870153605340
  0.5842291482745368  0.0608272709966059  0.2537309298373402
  0.5842291482745368  0.0608272709966059  0.7462690508016847
  0.5809208712516918  0.3165354545276852  0.2549434085965727
  0.5809208712516918  0.3165354545276852  0.7450566302231624
  0.9167181462303404  0.1884216582401985  0.2529430717448647
  0.9167181462303404  0.1884216582401985  0.7470569088941602
  0.4157727704353146  0.0607901991380901  0.2537466147845082
  0.4157727704353146  0.0607901991380901  0.7462533658545166
  0.4190111772519824  0.3165162315403011  0.2550045110209129
  0.4190111772519824  0.3165162315403011  0.7449955277988151
  0.0842272927648966  0.0607901991380901  0.2537466147845082
  0.0842272927648966  0.0607901991380901  0.7462533658545166
  0.0809888457246533  0.3165162315403011  0.2550045110209129
  0.0809888457246533  0.3165162315403011  0.7449955277988151
  0.5832818997422222  0.1884216582401985  0.2529430717448647
  0.5832818997422222  0.1884216582401985  0.7470569088941602
  0.6666646954791389  0.1250460038309229  0.2470769957691882
  0.6666646954791389  0.1250460038309229  0.7529229848698367
  0.1690079221329838 -0.0031188438128515  0.2448645211709878
  0.1690079221329838 -0.0031188438128515  0.7551354594680373
  0.1657703954759485  0.2526107528536164  0.2461557592925448
  0.1657703954759485  0.2526107528536164  0.7538442601336154
  0.3333291368430856  0.1249913077284237  0.2471395244570311
  0.3333291368430856  0.1249913077284237  0.7528604561819938
  0.8309718353932775 -0.0030632118979634  0.2448814170152031
  0.8309718353932775 -0.0030632118979634  0.7551185636238218
  0.8342469178468477  0.2526556544803562  0.2462728744921698
  0.8342469178468477  0.2526556544803562  0.7537271255404228
  0.1666708516975298  0.1249913077284237  0.2471395244570311
  0.1666708516975298  0.1249913077284237  0.7528604561819938
  0.6690281645681401 -0.0030632118979634  0.2448814170152031
  0.6690281645681401 -0.0030632118979634  0.7551185636238218
  0.6657530361998880  0.2526556544803562  0.2462728744921698
  0.6657530361998880  0.2526556544803562  0.7537271255404228
  0.8333353044822787  0.1250459939875896  0.2470769957691882
  0.8333353044822787  0.1250459939875896  0.7529229848698367
  0.3309920778863075 -0.0031188438128515  0.2448645211709878
  0.3309920778863075 -0.0031188438128515  0.7551354594680373
  0.3342296045433427  0.2526107528536164  0.2461557592925448
  0.3342296045433427  0.2526107528536164  0.7538442601336154

  0.00000000E+00  0.00000000E+00  0.00000000E+00
  0.00000000E+00  0.00000000E+00  0.00000000E+00
  0.00000000E+00  0.00000000E+00  0.00000000E+00
  0.00000000E+00  0.00000000E+00  0.00000000E+00
  0.00000000E+00  0.00000000E+00  0.00000000E+00
  0.00000000E+00  0.00000000E+00  0.00000000E+00
  0.00000000E+00  0.00000000E+00  0.00000000E+00
  0.00000000E+00  0.00000000E+00  0.00000000E+00
  0.00000000E+00  0.00000000E+00  0.00000000E+00
  0.00000000E+00  0.00000000E+00  0.00000000E+00
  0.00000000E+00  0.00000000E+00  0.00000000E+00
  0.00000000E+00  0.00000000E+00  0.00000000E+00
  0.00000000E+00  0.00000000E+00  0.00000000E+00
  0.00000000E+00  0.00000000E+00  0.00000000E+00
  0.00000000E+00  0.00000000E+00  0.00000000E+00
  0.00000000E+00  0.00000000E+00  0.00000000E+00
  0.00000000E+00  0.00000000E+00  0.00000000E+00
  0.00000000E+00  0.00000000E+00  0.00000000E+00
  0.00000000E+00  0.00000000E+00  0.00000000E+00
  0.00000000E+00  0.00000000E+00  0.00000000E+00
  0.00000000E+00  0.00000000E+00  0.00000000E+00
  0.00000000E+00  0.00000000E+00  0.00000000E+00
  0.00000000E+00  0.00000000E+00  0.00000000E+00
  0.00000000E+00  0.00000000E+00  0.00000000E+00
  0.00000000E+00  0.00000000E+00  0.00000000E+00
  0.00000000E+00  0.00000000E+00  0.00000000E+00
  0.00000000E+00  0.00000000E+00  0.00000000E+00
  0.00000000E+00  0.00000000E+00  0.00000000E+00
  0.00000000E+00  0.00000000E+00  0.00000000E+00
  0.00000000E+00  0.00000000E+00  0.00000000E+00
  0.00000000E+00  0.00000000E+00  0.00000000E+00
  0.00000000E+00  0.00000000E+00  0.00000000E+00
  0.00000000E+00  0.00000000E+00  0.00000000E+00
  0.00000000E+00  0.00000000E+00  0.00000000E+00
  0.00000000E+00  0.00000000E+00  0.00000000E+00
  0.00000000E+00  0.00000000E+00  0.00000000E+00
  0.00000000E+00  0.00000000E+00  0.00000000E+00
  0.00000000E+00  0.00000000E+00  0.00000000E+00
  0.00000000E+00  0.00000000E+00  0.00000000E+00
  0.00000000E+00  0.00000000E+00  0.00000000E+00
  0.00000000E+00  0.00000000E+00  0.00000000E+00
  0.00000000E+00  0.00000000E+00  0.00000000E+00
  0.00000000E+00  0.00000000E+00  0.00000000E+00
  0.00000000E+00  0.00000000E+00  0.00000000E+00
  0.00000000E+00  0.00000000E+00  0.00000000E+00
  0.00000000E+00  0.00000000E+00  0.00000000E+00
  0.00000000E+00  0.00000000E+00  0.00000000E+00
  0.00000000E+00  0.00000000E+00  0.00000000E+00
  0.00000000E+00  0.00000000E+00  0.00000000E+00
  0.00000000E+00  0.00000000E+00  0.00000000E+00
  0.00000000E+00  0.00000000E+00  0.00000000E+00
  0.00000000E+00  0.00000000E+00  0.00000000E+00
  0.00000000E+00  0.00000000E+00  0.00000000E+00
  0.00000000E+00  0.00000000E+00  0.00000000E+00
  0.00000000E+00  0.00000000E+00  0.00000000E+00
  0.00000000E+00  0.00000000E+00  0.00000000E+00
  0.00000000E+00  0.00000000E+00  0.00000000E+00
  0.00000000E+00  0.00000000E+00  0.00000000E+00
  0.00000000E+00  0.00000000E+00  0.00000000E+00
  0.00000000E+00  0.00000000E+00  0.00000000E+00
  0.00000000E+00  0.00000000E+00  0.00000000E+00
  0.00000000E+00  0.00000000E+00  0.00000000E+00
  0.00000000E+00  0.00000000E+00  0.00000000E+00
  0.00000000E+00  0.00000000E+00  0.00000000E+00
  0.00000000E+00  0.00000000E+00  0.00000000E+00
  0.00000000E+00  0.00000000E+00  0.00000000E+00
  0.00000000E+00  0.00000000E+00  0.00000000E+00
  0.00000000E+00  0.00000000E+00  0.00000000E+00
  0.00000000E+00  0.00000000E+00  0.00000000E+00
  0.00000000E+00  0.00000000E+00  0.00000000E+00
  0.00000000E+00  0.00000000E+00  0.00000000E+00
  0.00000000E+00  0.00000000E+00  0.00000000E+00
