B2 Mo                                   
1.0
        6.0780000687         0.0000000000         0.0000000000
       -3.0390007352         5.2637020590         0.0000000000
        0.0000000000         0.0000000000        22.3299999237
   Mo    V    B    H
   12    2   40    2
Cartesian
    -3.035990238         5.262653351         1.418304920
    -3.024423599         5.261623859         7.691503048
    -1.517179012         2.632958889         4.531618118
    -1.513144732         2.624416590        10.816850662
    -1.518151641         2.632428169         1.424988747
     4.558287144         2.629954338         7.698967934
     0.002239943         5.263241291         4.531304836
     3.057342768         0.013177634        10.818908691
     3.039724350         0.000085901         1.425106049
     3.046938419         0.012475487         7.698806763
     1.529033542         2.628885984         4.532952785
     1.574757457         2.609435797        10.751111984
     1.519329548         2.632568598         1.425836921
     1.527750134         2.633543253         7.682095051
     0.007532239         1.759081602        22.126462936
     0.017640114         1.765055060        12.379450798
     0.012684941         1.736700296         6.094340324
     0.009845734         1.732162356         2.981539726
     0.017708123         1.727463841         9.313484192
    -1.519565463         4.386961460        22.102373123
    -1.556573391         4.418937206        12.423264503
    -1.542617440         4.403975010         6.069525242
    -1.551087379         4.405994892         3.010684967
    -1.531155825         4.401959419         9.336006165
     3.030670404         1.759849072        22.124950409
     3.039072037         1.766402960        12.363376617
     3.031223297         1.763679028         6.132346153
     3.025951862         1.763429403         2.924644947
     3.030302525         1.767828584         9.223864555
     1.519817352         4.378411293        22.126577377
     1.528977394         4.383038044        12.378763199
     1.545512915         4.390896320         6.094212055
     1.544782639         4.390935421         2.980856657
     1.558814049         4.397796154         9.313141823
     1.518788934         0.886636198        22.125537872
     1.505327463         0.891826928        12.375230789
     1.505033255         0.875826895         6.093192577
     1.496249914         0.873499990         2.981969833
     1.497407079         0.862439573         9.305397034
     0.007652044         3.505295515        22.125486374
    -0.015469790         3.528895617        12.478171349
     0.019571543         3.502499342         6.136593342
     0.015017986         3.501649857         2.929443359
     0.031525135         3.499801874         9.225814819
     4.558437347         0.877791643        22.102085114
     4.621300697         0.852477372        12.358415604
     4.592034817         0.862196803         6.067494869
     4.592817783         0.858851552         3.009097338
     4.610633373         0.855587542         9.342105865
     3.030975819         3.505813837        22.125579834
     3.029090881         3.532155752        12.372754097
     3.036569834         3.529089689         6.093413353
     3.031814098         3.533014774         2.981364965
     3.048333168         3.548612833         9.305196762
     -0.822977424         3.985130072        13.462085724
	4.021300697         1.352477372        13.358415604
	
