MoVB2                                   
   1.00000000000000     
     6.0823528084991505   -0.0040235813606180    0.0000000000000000
    -3.0446609279720929    5.2654602563353698    0.0000000000000000
     0.0000000000000000    0.0000000000000000    9.3997427832070066
   Mo   V    B 
     6     6    24
Direct
 -0.0000000000000000  0.0000000000000000  0.0000000000000000
 -0.0000000000000000  0.0000000000000000  0.3333333506082781
 -0.0000000000000000  0.0000000000000000  0.6666667012165561
  0.4999999910163027  0.4999999818682568  0.0000000000000000
  0.4999999910163027  0.4999999818682568  0.3333333506082781
  0.4999999910163027  0.4999999818682568  0.6666667012165561
  0.9999999908601751  0.4999999818682568  0.0000000000000000
  0.9999999908601751  0.4999999818682568  0.3333333506082781
  0.9999999908601751  0.4999999818682568  0.6666667012165561
  0.4999999999917861  0.0000000000000000  0.0000000000000000
  0.4999999999917861  0.0000000000000000  0.3333333506082781
  0.4999999999917861  0.0000000000000000  0.6666667012165561
  0.1638653733049724  0.3361346312425584  0.1666666752498642
  0.1638653733049724  0.3361346312425584  0.5000000000217142
  0.1638653733049724  0.3361346312425585  0.8333332988485793
  0.8361345858867462  0.6638652871408934  0.1666666752498642
  0.8361345858867462  0.6638652871408934  0.5000000000217142
  0.8361345858867462  0.6638652871408934  0.8333332988485793
  0.6638653249494841  0.8361346129210576  0.1666666752498642
  0.6638653249494841  0.8361346129210576  0.5000000000217142
  0.6638653249494841  0.8361346129210576  0.8333332988485793
  0.3361346290021527  0.1638653732073575  0.1666666752498642
  0.3361346290021527  0.1638653732073575  0.5000000000217142
  0.3361346290021527  0.1638653732073575  0.8333332988485793
  0.1689228551591954  0.8310771415527604  0.1666666752498642
  0.1689228551591954  0.8310771415527604  0.5000000000217142
  0.1689228551591954  0.8310771415527604  0.8333332988485793
  0.8310771183487303  0.1689228445756549  0.1666666752498642
  0.8310771183487303  0.1689228445756549  0.5000000000217142
  0.8310771183487303  0.1689228445756549  0.8333332988485793
  0.6689228446650547  0.3310771598742611  0.1666666752498642
  0.6689228446650547  0.3310771598742611  0.5000000000217142
  0.6689228446650547  0.3310771598742611  0.8333332988485793
  0.3310771145266711  0.6689227585091907  0.1666666752498642
  0.3310771145266711  0.6689227585091907  0.5000000000217142
  0.3310771145266711  0.6689227585091907  0.8333332988485793
 
  0.00000000E+00  0.00000000E+00  0.00000000E+00
  0.00000000E+00  0.00000000E+00  0.00000000E+00
  0.00000000E+00  0.00000000E+00  0.00000000E+00
  0.00000000E+00  0.00000000E+00  0.00000000E+00
  0.00000000E+00  0.00000000E+00  0.00000000E+00
  0.00000000E+00  0.00000000E+00  0.00000000E+00
  0.00000000E+00  0.00000000E+00  0.00000000E+00
  0.00000000E+00  0.00000000E+00  0.00000000E+00
  0.00000000E+00  0.00000000E+00  0.00000000E+00
  0.00000000E+00  0.00000000E+00  0.00000000E+00
  0.00000000E+00  0.00000000E+00  0.00000000E+00
  0.00000000E+00  0.00000000E+00  0.00000000E+00
  0.00000000E+00  0.00000000E+00  0.00000000E+00
  0.00000000E+00  0.00000000E+00  0.00000000E+00
  0.00000000E+00  0.00000000E+00  0.00000000E+00
  0.00000000E+00  0.00000000E+00  0.00000000E+00
  0.00000000E+00  0.00000000E+00  0.00000000E+00
  0.00000000E+00  0.00000000E+00  0.00000000E+00
  0.00000000E+00  0.00000000E+00  0.00000000E+00
  0.00000000E+00  0.00000000E+00  0.00000000E+00
  0.00000000E+00  0.00000000E+00  0.00000000E+00
  0.00000000E+00  0.00000000E+00  0.00000000E+00
  0.00000000E+00  0.00000000E+00  0.00000000E+00
  0.00000000E+00  0.00000000E+00  0.00000000E+00
  0.00000000E+00  0.00000000E+00  0.00000000E+00
  0.00000000E+00  0.00000000E+00  0.00000000E+00
  0.00000000E+00  0.00000000E+00  0.00000000E+00
  0.00000000E+00  0.00000000E+00  0.00000000E+00
  0.00000000E+00  0.00000000E+00  0.00000000E+00
  0.00000000E+00  0.00000000E+00  0.00000000E+00
  0.00000000E+00  0.00000000E+00  0.00000000E+00
  0.00000000E+00  0.00000000E+00  0.00000000E+00
  0.00000000E+00  0.00000000E+00  0.00000000E+00
  0.00000000E+00  0.00000000E+00  0.00000000E+00
  0.00000000E+00  0.00000000E+00  0.00000000E+00
  0.00000000E+00  0.00000000E+00  0.00000000E+00
