B2 Mo                                   
   1.0000000000000000     
     6.0780000686999998    0.0000000000000000    0.0000000000000000
    -3.0390007352000001    5.2637020589999999    0.0000000000000000
     0.0000000000000000    0.0000000000000000   22.3299999237000009
   Mo   V    B    H 
    12     2    40     2
Direct
  0.0005315257033433  0.9991166959967367  0.0633874750304040
 -0.0001067892619804  0.9971992852035821  0.3442388192684445
 -0.0003611627712154  0.4990198699346224  0.2028652844291095
 -0.0005373919369768  0.5007920434138023  0.4844405663696026
  0.0010144845163881  0.4998586508753458  0.0637200813928015
  0.0014095986138646  0.4993290690833631  0.3443091251175622
  0.5002131632266796  0.9977918063513954  0.2028797588944609
  0.5066750556811372  0.0016255550059342  0.4842213579561847
  0.5005805118137281 -0.0001930230507896  0.0637393701846307
  0.5040880778090637  0.0036812439088566  0.3443997772864856
  0.5015716286438966  0.4984675854578091  0.2029791393309356
  0.5042429271208148  0.4923283281476135  0.4811045847834460
  0.5007574503532591  0.5002512172946975  0.0637942430051126
  0.5034114123927875  0.5012603278124916  0.3437955531404447
  0.1690447483989081  0.3340785790546141  0.9907612662820302
  0.1730944494557858  0.3373332197661124  0.5564278834636293
  0.1674592137363328  0.3289281784733907  0.2728932402672583
  0.1666861022010284  0.3286127249445151  0.1334403466627328
  0.1664099728039285  0.3278094734977555  0.4167257425838040
  0.1672612669592922  0.8332101734140474  0.9898037163507601
  0.1637278882246794  0.8389984805539490  0.5558882700774349
  0.1643968749953957  0.8357843312816079  0.2716511328445512
  0.1636903157470121  0.8366230889711245  0.1348124955061155
  0.1666812236530495  0.8350273619696426  0.4176035596371078
  0.6662983196320275  0.3342199909949974  0.9907199916144276
  0.6673905643640093  0.3357510639674731  0.5532304363813576
  0.6668401910858700  0.3345623607560405  0.2745009088854825
  0.6658933836279376  0.3345530195460207  0.1308992709517668
  0.6666689074064902  0.3352141602221087  0.4129805371063046
  0.6666168000484327  0.8316895792178799  0.9907954782806789
  0.6666565223661746  0.8305508203446925  0.5544696059384154
  0.6712671640755958  0.8329359756372385  0.2726621704278180
  0.6718046530112163  0.8336658437146495  0.1334126024293203
  0.6748349254835513  0.8347012800854920  0.4177536199735730
  0.3347239359027279  0.1683993747710320  0.9907778722480688
  0.3352924746339989  0.1706506597497766  0.5564607692552815
  0.3311658437847323  0.1654111220226796  0.2729220316064341
  0.3296363918255485  0.1653682741076090  0.1334626050735077
  0.3276798482697234  0.1625531163177662  0.4162991441051541
  0.3348543152059605  0.6656751338870236  0.9907556352933928
  0.3336655638666714  0.6716186302634156  0.5591900649825569
  0.3363617622588370  0.6646420404322521  0.2747423812204222
  0.3356461571417104  0.6648964238962912  0.1311068548845245
  0.3375104227258136  0.6639583421582232  0.4130686603686270
  0.8339360872332311  0.1666795548242540  0.9897200019159819
  0.8426636027981892  0.1575394040867654  0.5507915250947016
  0.8378348931519700  0.1624686159358565  0.2714294062813452
  0.8377190086747720  0.1626109747012119  0.1347379074670457
  0.8393749786532848  0.1617450198838574  0.4180702949801425
  0.8324093984597044  0.6659131680303694  0.9907782848479380
  0.8327452537100059  0.6694359642108335  0.5542028660283882
  0.8350422970861011  0.6696668732689675  0.2726386288126401
  0.8348267620974770  0.6706749116970600  0.1334040876876705
  0.8398854998587711  0.6740585467124443  0.4172898850192142
  0.2439977643511624  0.7611681145135457  0.6026374389704833
  0.2674819643815787  0.2719863127620337  0.6029830336681568

  0.00000000E+00  0.00000000E+00  0.00000000E+00
  0.00000000E+00  0.00000000E+00  0.00000000E+00
  0.00000000E+00  0.00000000E+00  0.00000000E+00
  0.00000000E+00  0.00000000E+00  0.00000000E+00
  0.00000000E+00  0.00000000E+00  0.00000000E+00
  0.00000000E+00  0.00000000E+00  0.00000000E+00
  0.00000000E+00  0.00000000E+00  0.00000000E+00
  0.00000000E+00  0.00000000E+00  0.00000000E+00
  0.00000000E+00  0.00000000E+00  0.00000000E+00
  0.00000000E+00  0.00000000E+00  0.00000000E+00
  0.00000000E+00  0.00000000E+00  0.00000000E+00
  0.00000000E+00  0.00000000E+00  0.00000000E+00
  0.00000000E+00  0.00000000E+00  0.00000000E+00
  0.00000000E+00  0.00000000E+00  0.00000000E+00
  0.00000000E+00  0.00000000E+00  0.00000000E+00
  0.00000000E+00  0.00000000E+00  0.00000000E+00
  0.00000000E+00  0.00000000E+00  0.00000000E+00
  0.00000000E+00  0.00000000E+00  0.00000000E+00
  0.00000000E+00  0.00000000E+00  0.00000000E+00
  0.00000000E+00  0.00000000E+00  0.00000000E+00
  0.00000000E+00  0.00000000E+00  0.00000000E+00
  0.00000000E+00  0.00000000E+00  0.00000000E+00
  0.00000000E+00  0.00000000E+00  0.00000000E+00
  0.00000000E+00  0.00000000E+00  0.00000000E+00
  0.00000000E+00  0.00000000E+00  0.00000000E+00
  0.00000000E+00  0.00000000E+00  0.00000000E+00
  0.00000000E+00  0.00000000E+00  0.00000000E+00
  0.00000000E+00  0.00000000E+00  0.00000000E+00
  0.00000000E+00  0.00000000E+00  0.00000000E+00
  0.00000000E+00  0.00000000E+00  0.00000000E+00
  0.00000000E+00  0.00000000E+00  0.00000000E+00
  0.00000000E+00  0.00000000E+00  0.00000000E+00
  0.00000000E+00  0.00000000E+00  0.00000000E+00
  0.00000000E+00  0.00000000E+00  0.00000000E+00
  0.00000000E+00  0.00000000E+00  0.00000000E+00
  0.00000000E+00  0.00000000E+00  0.00000000E+00
  0.00000000E+00  0.00000000E+00  0.00000000E+00
  0.00000000E+00  0.00000000E+00  0.00000000E+00
  0.00000000E+00  0.00000000E+00  0.00000000E+00
  0.00000000E+00  0.00000000E+00  0.00000000E+00
  0.00000000E+00  0.00000000E+00  0.00000000E+00
  0.00000000E+00  0.00000000E+00  0.00000000E+00
  0.00000000E+00  0.00000000E+00  0.00000000E+00
  0.00000000E+00  0.00000000E+00  0.00000000E+00
  0.00000000E+00  0.00000000E+00  0.00000000E+00
  0.00000000E+00  0.00000000E+00  0.00000000E+00
  0.00000000E+00  0.00000000E+00  0.00000000E+00
  0.00000000E+00  0.00000000E+00  0.00000000E+00
  0.00000000E+00  0.00000000E+00  0.00000000E+00
  0.00000000E+00  0.00000000E+00  0.00000000E+00
  0.00000000E+00  0.00000000E+00  0.00000000E+00
  0.00000000E+00  0.00000000E+00  0.00000000E+00
  0.00000000E+00  0.00000000E+00  0.00000000E+00
  0.00000000E+00  0.00000000E+00  0.00000000E+00
  0.00000000E+00  0.00000000E+00  0.00000000E+00
  0.00000000E+00  0.00000000E+00  0.00000000E+00
