MoB2                                    
   1.0000000000000000     
    10.5395298004000004    0.0000000000000000    0.0000000000000000
     0.0000000000000000    6.1412000655999996    0.0000000000000000
     0.0000000000000000    0.0000000000000000   24.1275005341000011
   Mo   V    B    H 
    18     6    48     2
Selective dynamics
Direct
  0.0000000000000000  0.0000000000000000  0.1248933082289696   F   F   F
  0.0000000000000000  0.5000000000325642  0.3743973304335029   F   F   F
  0.0000000000000000  0.5000000000325642  0.2538179383456978   F   F   F
  0.4999999999810214  0.0000000000000000  0.3743973304335029   F   F   F
  0.4999999999810214  0.0000000000000000  0.2538179383456978   F   F   F
  0.4999999999810214  0.5000000000325642  0.1248933082289696   F   F   F
  0.2505429580833649  0.0000000000000000  0.0667882882324449   F   F   F
  0.2494202369350731  0.0000000000000000  0.1881005598398318   F   F   F
  0.2504434014598829  0.0000000000000000  0.3164421353637223   F   F   F
  0.2494569514761693  0.5000000000325642  0.0667882882324449   F   F   F
  0.2505796952061132  0.5000000000325642  0.1881005598398318   F   F   F
  0.2495565080996442  0.5000000000325642  0.3164421353637223   F   F   F
  0.7494569514571907  0.0000000000000000  0.0667882882324449   F   F   F
  0.7505796499289517  0.0000000000000000  0.1881005598398318   F   F   F
  0.7495565306623249  0.0000000000000000  0.3164421353637223   F   F   F
  0.7505430033225764  0.5000000000325642  0.0667882882324449   F   F   F
  0.7494202143344424  0.5000000000325642  0.1881005598398318   F   F   F
  0.7504433787643734  0.5000000000325642  0.3164421353637223   F   F   F
  0.0000000000000000  0.0000000000000000  0.3741498158187397   F   F   F
  0.4999999999810214  0.5000000000325642  0.3741498158187397   F   F   F
  0.0000000000000000  0.5000000000325642  0.1260630044418107   F   F   F
  0.4999999999810214  0.0000000000000000  0.1260630044418107   F   F   F
  0.0000000000000000  0.0000000000000000  0.2538580577106799   F   F   F
  0.4999999999810214  0.5000000000325642  0.2538580577106799   F   F   F
  0.0800852574056918  0.2585768686962382  0.0576018780327345   F   F   F
  0.0819915035457441  0.2511011311352433  0.1883542603419315   F   F   F
  0.0830454499940600  0.2402128110535457  0.3184267186375820   F   F   F
  0.0800852574056918  0.7414231505833797  0.0576018780327345   F   F   F
  0.0819915035457441  0.7488988689298921  0.1883542603419315   F   F   F
  0.0830454499940600  0.7597871113394703  0.3184267186375820   F   F   F
  0.5800852970469279  0.2414231117961734  0.0576018780327345   F   F   F
  0.5819915092196268  0.2488988495200033  0.1883542603419315   F   F   F
  0.5830454839424419  0.2597871696017009  0.3184267186375820   F   F   F
  0.5800852970469279  0.7585768493514848  0.0576018780327345   F   F   F
  0.5819915092196268  0.7511011310049795  0.1883542603419315   F   F   F
  0.5830454839424419  0.7402128110861099  0.3184267186375820   F   F   F
  0.3310487184985789  0.2494430675823196  0.3835564772207007   F   F   F
  0.3361668934097537  0.2459603906182863  0.1228406209259489   F   F   F
  0.3348109233360717  0.2544271385575456  0.2528491847043099   F   F   F
  0.3310487184985789  0.7505569131054983  0.3835564772207007   F   F   F
  0.3361668934097537  0.7540395511520543  0.1228406209259489   F   F   F
  0.3348109233360717  0.7455728421302723  0.2528491847043099   F   F   F
  0.8310486958030694  0.2505569130729270  0.3835564772207007   F   F   F
  0.8361669159724343  0.2540396094142849  0.1228406209259489   F   F   F
  0.8348109007354481  0.2455728420977010  0.2528491847043099   F   F   F
  0.8310486958030694  0.7494430869922084  0.3835564772207007   F   F   F
  0.8361669159724343  0.7459604489456453  0.1228406209259489   F   F   F
  0.8348109007354481  0.7544271579674273  0.2528491847043099   F   F   F
  0.4199147481733050  0.2414231117961734  0.0576018780327345   F   F   F
  0.4180084908373018  0.2488988495200033  0.1883542603419315   F   F   F
  0.4169545612777910  0.2597871696017009  0.3184267186375820   F   F   F
  0.4199147481733050  0.7585768493514848  0.0576018780327345   F   F   F
  0.4180084908373018  0.7511011310049795  0.1883542603419315   F   F   F
  0.4169545612777910  0.7402128110861099  0.3184267186375820   F   F   F
  0.9199147482492123  0.2585768686962382  0.0576018780327345   F   F   F
  0.9180084908183304  0.2511011311352433  0.1883542603419315   F   F   F
  0.9169546065170024  0.2402128110535457  0.3184267186375820   F   F   F
  0.9199147482492123  0.7414231505833797  0.0576018780327345   F   F   F
  0.9180084908183304  0.7488988689298921  0.1883542603419315   F   F   F
  0.9169546065170024  0.7597871113394703  0.3184267186375820   F   F   F
  0.1689512701916200  0.2505569130729270  0.3835564772207007   F   F   F
  0.1638331292478057  0.2540396094142849  0.1228406209259489   F   F   F
  0.1651890992266019  0.2455728420977010  0.2528491847043099   F   F   F
  0.1689512701916200  0.7494430869922084  0.3835564772207007   F   F   F
  0.1638331292478057  0.7459604489456453  0.1228406209259489   F   F   F
  0.1651890992266019  0.7544271579674273  0.2528491847043099   F   F   F
  0.6689512588818189  0.2494430675823196  0.3835564772207007   F   F   F
  0.6638331292288271  0.2459603906182863  0.1228406209259489   F   F   F
  0.6651890992076233  0.2544271385575456  0.2528491847043099   F   F   F
  0.6689512588818189  0.7505569131054983  0.3835564772207007   F   F   F
  0.6638331292288271  0.7540395511520543  0.1228406209259489   F   F   F
  0.6651890992076233  0.7455728421302723  0.2528491847043099   F   F   F
  0.5955999615206026  0.7529707679965508  0.4251665142636137   T   T   T
  0.5963057331477467  0.2771763964764967  0.4247966314319277   T   T   T

  0.00000000E+00  0.00000000E+00  0.00000000E+00
  0.00000000E+00  0.00000000E+00  0.00000000E+00
  0.00000000E+00  0.00000000E+00  0.00000000E+00
  0.00000000E+00  0.00000000E+00  0.00000000E+00
  0.00000000E+00  0.00000000E+00  0.00000000E+00
  0.00000000E+00  0.00000000E+00  0.00000000E+00
  0.00000000E+00  0.00000000E+00  0.00000000E+00
  0.00000000E+00  0.00000000E+00  0.00000000E+00
  0.00000000E+00  0.00000000E+00  0.00000000E+00
  0.00000000E+00  0.00000000E+00  0.00000000E+00
  0.00000000E+00  0.00000000E+00  0.00000000E+00
  0.00000000E+00  0.00000000E+00  0.00000000E+00
  0.00000000E+00  0.00000000E+00  0.00000000E+00
  0.00000000E+00  0.00000000E+00  0.00000000E+00
  0.00000000E+00  0.00000000E+00  0.00000000E+00
  0.00000000E+00  0.00000000E+00  0.00000000E+00
  0.00000000E+00  0.00000000E+00  0.00000000E+00
  0.00000000E+00  0.00000000E+00  0.00000000E+00
  0.00000000E+00  0.00000000E+00  0.00000000E+00
  0.00000000E+00  0.00000000E+00  0.00000000E+00
  0.00000000E+00  0.00000000E+00  0.00000000E+00
  0.00000000E+00  0.00000000E+00  0.00000000E+00
  0.00000000E+00  0.00000000E+00  0.00000000E+00
  0.00000000E+00  0.00000000E+00  0.00000000E+00
  0.00000000E+00  0.00000000E+00  0.00000000E+00
  0.00000000E+00  0.00000000E+00  0.00000000E+00
  0.00000000E+00  0.00000000E+00  0.00000000E+00
  0.00000000E+00  0.00000000E+00  0.00000000E+00
  0.00000000E+00  0.00000000E+00  0.00000000E+00
  0.00000000E+00  0.00000000E+00  0.00000000E+00
  0.00000000E+00  0.00000000E+00  0.00000000E+00
  0.00000000E+00  0.00000000E+00  0.00000000E+00
  0.00000000E+00  0.00000000E+00  0.00000000E+00
  0.00000000E+00  0.00000000E+00  0.00000000E+00
  0.00000000E+00  0.00000000E+00  0.00000000E+00
  0.00000000E+00  0.00000000E+00  0.00000000E+00
  0.00000000E+00  0.00000000E+00  0.00000000E+00
  0.00000000E+00  0.00000000E+00  0.00000000E+00
  0.00000000E+00  0.00000000E+00  0.00000000E+00
  0.00000000E+00  0.00000000E+00  0.00000000E+00
  0.00000000E+00  0.00000000E+00  0.00000000E+00
  0.00000000E+00  0.00000000E+00  0.00000000E+00
  0.00000000E+00  0.00000000E+00  0.00000000E+00
  0.00000000E+00  0.00000000E+00  0.00000000E+00
  0.00000000E+00  0.00000000E+00  0.00000000E+00
  0.00000000E+00  0.00000000E+00  0.00000000E+00
  0.00000000E+00  0.00000000E+00  0.00000000E+00
  0.00000000E+00  0.00000000E+00  0.00000000E+00
  0.00000000E+00  0.00000000E+00  0.00000000E+00
  0.00000000E+00  0.00000000E+00  0.00000000E+00
  0.00000000E+00  0.00000000E+00  0.00000000E+00
  0.00000000E+00  0.00000000E+00  0.00000000E+00
  0.00000000E+00  0.00000000E+00  0.00000000E+00
  0.00000000E+00  0.00000000E+00  0.00000000E+00
  0.00000000E+00  0.00000000E+00  0.00000000E+00
  0.00000000E+00  0.00000000E+00  0.00000000E+00
  0.00000000E+00  0.00000000E+00  0.00000000E+00
  0.00000000E+00  0.00000000E+00  0.00000000E+00
  0.00000000E+00  0.00000000E+00  0.00000000E+00
  0.00000000E+00  0.00000000E+00  0.00000000E+00
  0.00000000E+00  0.00000000E+00  0.00000000E+00
  0.00000000E+00  0.00000000E+00  0.00000000E+00
  0.00000000E+00  0.00000000E+00  0.00000000E+00
  0.00000000E+00  0.00000000E+00  0.00000000E+00
  0.00000000E+00  0.00000000E+00  0.00000000E+00
  0.00000000E+00  0.00000000E+00  0.00000000E+00
  0.00000000E+00  0.00000000E+00  0.00000000E+00
  0.00000000E+00  0.00000000E+00  0.00000000E+00
  0.00000000E+00  0.00000000E+00  0.00000000E+00
  0.00000000E+00  0.00000000E+00  0.00000000E+00
  0.00000000E+00  0.00000000E+00  0.00000000E+00
  0.00000000E+00  0.00000000E+00  0.00000000E+00
  0.00000000E+00  0.00000000E+00  0.00000000E+00
  0.00000000E+00  0.00000000E+00  0.00000000E+00
