B2 Mo                                   
   1.0000000000000000     
     6.0780000686999998    0.0000000000000000    0.0000000000000000
    -3.0390007352000001    5.2637020589999999    0.0000000000000000
     0.0000000000000000    0.0000000000000000   22.3299999237000009
   Mo   V    B    H 
    12     2    40     1
Direct
  0.0004301913407064  0.9992251711628392  0.0632293217171780
  0.0009657259427721  0.9990175137877075  0.3442497963950408
  0.0001623809129076  0.4994706849927008  0.2026559504623186
  0.0021969657003068  0.5037253383999297  0.4832095445437319
  0.0007583244211147  0.4995036924944724  0.0636009058363260
  0.0039489348540367  0.5011477375509196  0.3445049190576001
  0.5009124915756239  0.9987143759994513  0.2026750721113945
  0.5059222439450294 -0.0000876233482599  0.4832598232020460
  0.5006663011772440  0.9995453878365261  0.0635972178965051
  0.5030954092534579  0.0019248337727843  0.3444965187568976
  0.5009859855173565  0.4995114020991258  0.2030388714922093
  0.5019370168232083  0.4996864699066447  0.4839779952094883
  0.5010332393525669  0.4998491782917733  0.0636007227889907
  0.5031609834997921  0.5011575580088897  0.3442270063018523
  0.1690750228641758  0.3335703663155171  0.9905572735496360
  0.1708549643980212  0.3350728307968205  0.5573215936528592
  0.1674694336128974  0.3294204746923097  0.2727531262711564
  0.1668549475058708  0.3285786303165130  0.1332950827991744
  0.1681591852252037  0.3288594853396832  0.4166727138815551
  0.1673993636069253  0.8328483225598980  0.9895699745714294
  0.1679458704290063  0.8365572947063251  0.5535679365812423
  0.1648402652123878  0.8360996432926383  0.2715568631565432
  0.1637925177511672  0.8366235223699729  0.1346351485018658
  0.1657867036115815  0.8381589260432361  0.4178659142996371
  0.6663261926878296  0.3337878226234223  0.9905537265579072
  0.6707678905025889  0.3352482694875614  0.5542798961137290
  0.6671399904589850  0.3348158583854153  0.2743240104778260
  0.6659678848594301  0.3344567808500937  0.1307958278945756
  0.6677764663030802  0.3358573535963106  0.4125619291962139
  0.6666617730185420  0.8312935973580479  0.9905858400358326
  0.6742307660527808  0.8366975746577495  0.5545269051607067
  0.6719164438054764  0.8337496250864957  0.2726551631581499
  0.6717689588314915  0.8334620047466704  0.1332257421016319
  0.6755041766147621  0.8357184913519483  0.4171982158159446
  0.3346865237491098  0.1679779810884128  0.9905595814253874
  0.3373703334443401  0.1684679188152570  0.5572956880814687
  0.3311761485373918  0.1657950917056039  0.2727697649016497
  0.3298572320384621  0.1655516334454895  0.1333059087200526
  0.3310087551726509  0.1660186637479877  0.4166804197542870
  0.3348895800182003  0.6652144362199398  0.9905493812945841
  0.3375484150316136  0.6683968185886249  0.5542966020101552
  0.3365414806343943  0.6653996163353982  0.2743155162032979
  0.3357403112853755  0.6646923339685105  0.1307985152137730
  0.3380223181855926  0.6656547577306817  0.4125652784285664
  0.8339486142233424  0.1662981589866018  0.9895714386243050
  0.8390264323100104  0.1656687826166648  0.5535471374213031
  0.8378586095382023  0.1631160017278024  0.2715311170614215
  0.8378833677388950  0.1625117105266153  0.1346165904893260
  0.8402783456001859  0.1636097925579659  0.4178767435110137
  0.8324013854984308  0.6655572074371474  0.9905877500603618
  0.8389700631410700  0.6717769837023864  0.5545495781681569
  0.8354276763009175  0.6701383767558531  0.2726694673258109
  0.8347719208105958  0.6705095137221591  0.1332321403370995
  0.8378709415476440  0.6733692944736002  0.4171992326236350
  0.2619208203003131  0.2593044867420563  0.6037696869964151

  0.00000000E+00  0.00000000E+00  0.00000000E+00
  0.00000000E+00  0.00000000E+00  0.00000000E+00
  0.00000000E+00  0.00000000E+00  0.00000000E+00
  0.00000000E+00  0.00000000E+00  0.00000000E+00
  0.00000000E+00  0.00000000E+00  0.00000000E+00
  0.00000000E+00  0.00000000E+00  0.00000000E+00
  0.00000000E+00  0.00000000E+00  0.00000000E+00
  0.00000000E+00  0.00000000E+00  0.00000000E+00
  0.00000000E+00  0.00000000E+00  0.00000000E+00
  0.00000000E+00  0.00000000E+00  0.00000000E+00
  0.00000000E+00  0.00000000E+00  0.00000000E+00
  0.00000000E+00  0.00000000E+00  0.00000000E+00
  0.00000000E+00  0.00000000E+00  0.00000000E+00
  0.00000000E+00  0.00000000E+00  0.00000000E+00
  0.00000000E+00  0.00000000E+00  0.00000000E+00
  0.00000000E+00  0.00000000E+00  0.00000000E+00
  0.00000000E+00  0.00000000E+00  0.00000000E+00
  0.00000000E+00  0.00000000E+00  0.00000000E+00
  0.00000000E+00  0.00000000E+00  0.00000000E+00
  0.00000000E+00  0.00000000E+00  0.00000000E+00
  0.00000000E+00  0.00000000E+00  0.00000000E+00
  0.00000000E+00  0.00000000E+00  0.00000000E+00
  0.00000000E+00  0.00000000E+00  0.00000000E+00
  0.00000000E+00  0.00000000E+00  0.00000000E+00
  0.00000000E+00  0.00000000E+00  0.00000000E+00
  0.00000000E+00  0.00000000E+00  0.00000000E+00
  0.00000000E+00  0.00000000E+00  0.00000000E+00
  0.00000000E+00  0.00000000E+00  0.00000000E+00
  0.00000000E+00  0.00000000E+00  0.00000000E+00
  0.00000000E+00  0.00000000E+00  0.00000000E+00
  0.00000000E+00  0.00000000E+00  0.00000000E+00
  0.00000000E+00  0.00000000E+00  0.00000000E+00
  0.00000000E+00  0.00000000E+00  0.00000000E+00
  0.00000000E+00  0.00000000E+00  0.00000000E+00
  0.00000000E+00  0.00000000E+00  0.00000000E+00
  0.00000000E+00  0.00000000E+00  0.00000000E+00
  0.00000000E+00  0.00000000E+00  0.00000000E+00
  0.00000000E+00  0.00000000E+00  0.00000000E+00
  0.00000000E+00  0.00000000E+00  0.00000000E+00
  0.00000000E+00  0.00000000E+00  0.00000000E+00
  0.00000000E+00  0.00000000E+00  0.00000000E+00
  0.00000000E+00  0.00000000E+00  0.00000000E+00
  0.00000000E+00  0.00000000E+00  0.00000000E+00
  0.00000000E+00  0.00000000E+00  0.00000000E+00
  0.00000000E+00  0.00000000E+00  0.00000000E+00
  0.00000000E+00  0.00000000E+00  0.00000000E+00
  0.00000000E+00  0.00000000E+00  0.00000000E+00
  0.00000000E+00  0.00000000E+00  0.00000000E+00
  0.00000000E+00  0.00000000E+00  0.00000000E+00
  0.00000000E+00  0.00000000E+00  0.00000000E+00
  0.00000000E+00  0.00000000E+00  0.00000000E+00
  0.00000000E+00  0.00000000E+00  0.00000000E+00
  0.00000000E+00  0.00000000E+00  0.00000000E+00
  0.00000000E+00  0.00000000E+00  0.00000000E+00
  0.00000000E+00  0.00000000E+00  0.00000000E+00
