MoB2                                    
1.0
       10.5395298004         0.0000000000         0.0000000000
        0.0000000000         6.1412000656         0.0000000000
        0.0000000000         0.0000000000        24.1275005341
   Mo    V    B    H
   18    6   48    2
Selective dynamics
Cartesian
    10.538646698         6.140478134         2.999682188   F F F 
     0.004863454         3.070294380         0.073583670    F F F 
     0.008055156         3.068317890         6.122988224    F F F 
     5.269020081         6.140930176         0.074158803    F F F 
     5.272472858         0.005105872         6.132822037    F F F 
     5.277151108         3.070868731         3.002037287    F F F 
     2.636950254         0.000548594         1.486717939    F F F 
     2.645168066         0.000869671         4.590142250    F F F 
     2.630302429         0.005006226         7.514316082    F F F 
     2.637169838         3.068758249         1.484724641    F F F 
     2.639050961         3.070716143         4.587315559    F F F 
     2.635350227         3.063967466         7.512706757    F F F 
     7.907503605         6.140303135         1.492783189    F F F 
     7.904528618         6.135513783         4.590761185    F F F 
     7.936902046         6.132999420         7.516759872    F F F 
     7.906083584         3.069673061         1.492558718    F F F 
     7.908619404         3.077596903         4.588373184    F F F 
     7.931314468         3.066518307         7.514133930    F F F 
     0.003911829         6.139719963         0.118758336    F F F 
     5.267902374         3.071812391         0.120427795    F F F 
    10.539495468         3.070521593         3.005196571   F F F 
     5.274547577         6.140515327         3.004473925    F F F 
     0.009117587         0.002378357         6.078790665    F F F 
     5.275922775         3.070021868         6.101007462    F F F 
     0.880785704         1.533719897         1.444400907    F F F 
     0.869665861         1.535182714         4.579438686    F F F 
     0.848646343         1.483047009         7.734042645    F F F 
     0.881383538         4.606688976         1.444876552    F F F 
     0.867475450         4.605120182         4.581809521    F F F 
     0.858827651         4.657821178         7.730831623    F F F 
     6.149353504         1.535732865         1.446229815    F F F 
     6.137956142         1.534759879         4.584446430    F F F 
     6.127242565         1.584098220         7.720134258    F F F 
     6.150402069         4.605194092         1.446061373    F F F 
     6.136975288         4.606029034         4.591934204    F F F 
     6.068510532         4.561927319         7.735906124    F F F 
     3.491825581         1.532520652        23.999244690   F F F 
     3.532601357         1.506222129         3.028511286    F F F 
     3.552375793         1.561870217         6.164246559    F F F 
     3.492806435         4.607584476        24.000209808   F F F 
     3.533192158         4.634426594         3.026719809    F F F 
     3.539281845         4.579566002         6.152277470    F F F 
     8.759852409         1.536216736        24.002283096   F F F 
     8.800529480         1.564128041         3.029924631    F F F 
     8.815801620         1.512682676         6.168924809    F F F 
     8.761095047         4.604715347        24.001022339   F F F 
     8.801255226         4.576230526         3.027304649    F F F 
     8.821514130         4.629542828         6.157393456    F F F 
     4.394394398         1.536371589         1.446831942    F F F 
     4.412145615         1.537039876         4.582028866    F F F 
     4.435832500         1.588957906         7.746129990    F F F 
     4.394301414         4.604993820         1.446263313    F F F 
     4.412640095         4.606234074         4.581495285    F F F 
     4.385560989         4.557179451         7.711765289    F F F 
     9.664154053         1.534172177         1.444570780    F F F 
     9.680117607         1.536306977         4.582429886    F F F 
     9.699529648         1.482815027         7.741271019    F F F 
     9.663688660         4.605847359         1.444553971    F F F 
     9.680299759         4.604318142         4.580334187    F F F 
     9.717697144         4.659152985         7.726876736    F F F 
     1.782902479         1.536679506        23.999126434   F F F 
     1.743895531         1.563770533         3.026512623    F F F 
     1.731284142         1.508806705         6.158205509    F F F 
     1.782507658         4.603672981        24.000595093   F F F 
     1.745103240         4.576776505         3.026736259    F F F 
     1.729355931         4.632251740         6.157773018    F F F 
     7.051812172         1.533286572        24.003028870   F F F 
     7.013968468         1.505942702         3.030683517    F F F 
     7.009245396         1.559287190         6.162314892    F F F 
     7.052342415         4.606540680        24.002382278   F F F 
     7.011975765         4.635495663         3.031498671    F F F 
     6.997228622         4.577451706         6.175515175    F F F 
     6.803051472         4.620416164         8.771850586    T T T 
	 1.592481472         4.620416164         8.771850586    T T T 
