B2 Mo                                   
   1.0000000000000000     
     6.0880565643000004    0.0000000000000000    0.0000000000000000
    -3.0505411110999998    5.2686460937000001    0.0000000000000000
     0.0000000000000000    0.0000000000000000   23.7224636078000017
   Mo   V    B    H 
    10     4    40     5
Direct
 -0.0006847632951682  0.5026428232626499  0.0695628701816558
  0.0015943327027205  0.5030074974163017  0.3305814123127525
 -0.0025092426979278  0.5020893918505905  0.1990079077630186
 -0.0060143012054374  0.5027149055710380  0.4594554697489175
  0.4989830059570489  0.0029155467317747  0.0695687489789212
  0.4995558919479493  0.0049921649916620  0.3306050603490628
  0.4985213077759257  0.0011911624077124  0.1989908356785157
  0.4989287657859519 -0.0022797930052513  0.4593211336839125
  0.4989975362097533  0.5025552869610579  0.0690063528626680
  0.5002991847185101  0.5036509401382427  0.3305761763704188
 -0.0015265044530011  0.0020530867650862  0.0703212417310848
 -0.0019924669288849  0.0016137474060752  0.3304435612532704
  0.4992888871600938  0.5029689243206147  0.1989767937598766
  0.4965569315743485  0.5002271976067885  0.4563501843330930
  0.1640340955630216  0.3286252536385627  0.1359862991577771
  0.1630971377332992  0.3266980392957955  0.3996857665815651
  0.1644483578652160  0.3337634461798716  0.0013253210730050
  0.1815154808451546  0.3478868020600772  0.5254461539940859
  0.1646368528415162  0.3299859565963565  0.2631483055651063
  0.1608456649970974  0.8405636435735272  0.1348521670668719
  0.1602788981382769  0.8418620424337574  0.3979364546585979
  0.1645428540931212  0.8365790502428784  0.0011662267161053
  0.1738181299528597  0.8493663749721960  0.5263023645516945
  0.1613750221968592  0.8402009627789715  0.2640885082844388
  0.6639321572068430  0.3375954921452860  0.1344224069599248
  0.6653706982301909  0.3384105652565779  0.3971985615674010
  0.6658644070213726  0.3358146123896779  0.0003939269374945
  0.6730981906470341  0.3452563032460655  0.5314926360623765
  0.6647486545787921  0.3376362944457246  0.2641464883962118
  0.6728963059492469  0.8373546003561109  0.1359314600818845
  0.6765769851661412  0.8397701089151500  0.3997780079142304
  0.6676779164657345  0.8369908922068863  0.0013963225938203
  0.6807868499656512  0.8472269358752734  0.5242947250510935
  0.6722274686202864  0.8374285912490410  0.2630358712408388
  0.3249654406233050  0.1676571477279235  0.1360027298798793
  0.3229490551785109  0.1666563115490643  0.3996825580990225
  0.3302030501691049  0.1680294855292120  0.0013160571617479
  0.3435116996371744  0.1854825597571142  0.5254417712067899
  0.3265121591543552  0.1681950270320278  0.2632043971096338
  0.3339722362427632  0.6675280256760446  0.1344216663658341
  0.3347193634660165  0.6687868622510634  0.3971819323303378
  0.3322350240261489  0.6694314779406388  0.0003927337637076
  0.3414430147993081  0.6775525061274940  0.5314168253815599
  0.3341610958452731  0.6682606369585282  0.2641210668109586
  0.8369561243333272  0.1644918944449378  0.1348475740388923
  0.8383484414417406  0.1639197182313919  0.3979562438495441
  0.8330013783395276  0.1681072361541557  0.0011778732001401
  0.8449467880907604  0.1775998450527240  0.5262303164679211
  0.8366684292158215  0.1648569208645282  0.2640612712107169
  0.8337349380933238  0.6765320682637964  0.1359447112585071
  0.8361406844562878  0.6802823670713541  0.3997370592787478
  0.8334143893406660  0.6712839308564706  0.0013936265479701
  0.8433343644603649  0.6846552998397935  0.5243928191389976
  0.8339206508485315  0.6757738721440668  0.2630608839741156
  0.2314283297807488  0.7655183608984325  0.5713444574196118
  0.2566576475319206  0.2624061539615512  0.5697280457790437
  0.7595596311195320  0.2338091833750953  0.5712965749673120
  0.7567009535806551  0.5417612370644808  0.5696910962297009
  0.5378043152357089  0.7600125924359102  0.5695467522909966

  0.00000000E+00  0.00000000E+00  0.00000000E+00
  0.00000000E+00  0.00000000E+00  0.00000000E+00
  0.00000000E+00  0.00000000E+00  0.00000000E+00
  0.00000000E+00  0.00000000E+00  0.00000000E+00
  0.00000000E+00  0.00000000E+00  0.00000000E+00
  0.00000000E+00  0.00000000E+00  0.00000000E+00
  0.00000000E+00  0.00000000E+00  0.00000000E+00
  0.00000000E+00  0.00000000E+00  0.00000000E+00
  0.00000000E+00  0.00000000E+00  0.00000000E+00
  0.00000000E+00  0.00000000E+00  0.00000000E+00
  0.00000000E+00  0.00000000E+00  0.00000000E+00
  0.00000000E+00  0.00000000E+00  0.00000000E+00
  0.00000000E+00  0.00000000E+00  0.00000000E+00
  0.00000000E+00  0.00000000E+00  0.00000000E+00
  0.00000000E+00  0.00000000E+00  0.00000000E+00
  0.00000000E+00  0.00000000E+00  0.00000000E+00
  0.00000000E+00  0.00000000E+00  0.00000000E+00
  0.00000000E+00  0.00000000E+00  0.00000000E+00
  0.00000000E+00  0.00000000E+00  0.00000000E+00
  0.00000000E+00  0.00000000E+00  0.00000000E+00
  0.00000000E+00  0.00000000E+00  0.00000000E+00
  0.00000000E+00  0.00000000E+00  0.00000000E+00
  0.00000000E+00  0.00000000E+00  0.00000000E+00
  0.00000000E+00  0.00000000E+00  0.00000000E+00
  0.00000000E+00  0.00000000E+00  0.00000000E+00
  0.00000000E+00  0.00000000E+00  0.00000000E+00
  0.00000000E+00  0.00000000E+00  0.00000000E+00
  0.00000000E+00  0.00000000E+00  0.00000000E+00
  0.00000000E+00  0.00000000E+00  0.00000000E+00
  0.00000000E+00  0.00000000E+00  0.00000000E+00
  0.00000000E+00  0.00000000E+00  0.00000000E+00
  0.00000000E+00  0.00000000E+00  0.00000000E+00
  0.00000000E+00  0.00000000E+00  0.00000000E+00
  0.00000000E+00  0.00000000E+00  0.00000000E+00
  0.00000000E+00  0.00000000E+00  0.00000000E+00
  0.00000000E+00  0.00000000E+00  0.00000000E+00
  0.00000000E+00  0.00000000E+00  0.00000000E+00
  0.00000000E+00  0.00000000E+00  0.00000000E+00
  0.00000000E+00  0.00000000E+00  0.00000000E+00
  0.00000000E+00  0.00000000E+00  0.00000000E+00
  0.00000000E+00  0.00000000E+00  0.00000000E+00
  0.00000000E+00  0.00000000E+00  0.00000000E+00
  0.00000000E+00  0.00000000E+00  0.00000000E+00
  0.00000000E+00  0.00000000E+00  0.00000000E+00
  0.00000000E+00  0.00000000E+00  0.00000000E+00
  0.00000000E+00  0.00000000E+00  0.00000000E+00
  0.00000000E+00  0.00000000E+00  0.00000000E+00
  0.00000000E+00  0.00000000E+00  0.00000000E+00
  0.00000000E+00  0.00000000E+00  0.00000000E+00
  0.00000000E+00  0.00000000E+00  0.00000000E+00
  0.00000000E+00  0.00000000E+00  0.00000000E+00
  0.00000000E+00  0.00000000E+00  0.00000000E+00
  0.00000000E+00  0.00000000E+00  0.00000000E+00
  0.00000000E+00  0.00000000E+00  0.00000000E+00
  0.00000000E+00  0.00000000E+00  0.00000000E+00
  0.00000000E+00  0.00000000E+00  0.00000000E+00
  0.00000000E+00  0.00000000E+00  0.00000000E+00
  0.00000000E+00  0.00000000E+00  0.00000000E+00
  0.00000000E+00  0.00000000E+00  0.00000000E+00
