MoVB2                                   
1.0
        6.0823540688         0.0000000000         0.0000000000
       -3.0481428444         5.2634452802         0.0000000000
        0.0000000000         0.0000000000        28.1992301941
   Mo    V      B
   8        8      40
Cartesian
    3.031646    5.261524    4.765592
    3.031667    5.261536   11.036362
    3.031914    5.261623    1.638499
    3.031936    5.261635    7.909270
    1.515111    2.630856    4.765751
    1.515133    2.630868   11.036522
    1.514959    2.630738    1.638316
    1.514980    2.630749    7.909087
  4.554887    2.630597    4.772992
  4.554909    2.630608   11.043762
  4.554653    2.630715    1.631102
  4.554675    2.630727    7.901873
 -0.008055    5.261672    4.772985
 -0.008033    5.261683   11.043756
 -0.007587    5.261550    1.631040
 -0.007566    5.261562    7.901811
 -0.027901    1.767643    0.067455
 -0.027879    1.767655    6.338226
 -0.027858    1.767667   12.608995
 -0.029925    1.768848    3.202338
 -0.029903    1.768859    9.473108
  3.057770    3.493845    0.067512
  3.057791    3.493856    6.338283
  3.057813    3.493868   12.609054
  3.059916    3.492625    3.202288
  3.059938    3.492637    9.473059
  1.488890    4.398489    0.067484
  1.488912    4.398501    6.338255
  1.488933    4.398512   12.609026
  1.486868    4.399650    3.202278
  1.486889    4.399662    9.473048
  1.540964    0.862977    0.067460
  1.540986    0.862989    6.338231
  1.541008    0.863000   12.609001
  1.543103    0.861814    3.202312
  1.543125    0.861826    9.473083
 -1.507220    4.373251    0.067143
 -1.507198    4.373263    6.337914
 -1.507177    4.373274   12.608685
 -1.505301    4.372230    3.202107
 -1.505279    4.372241    9.472878
  4.537093    0.888277    0.067162
  4.537115    0.888289    6.337932
  4.537137    0.888300   12.608703
  4.535297    0.889310    3.202066
  4.535319    0.889321    9.472836
  3.055716    1.742373    0.067150
  3.055738    1.742385    6.337921
  3.055760    1.742397   12.608690
  3.057503    1.741390    3.202066
  3.057525    1.741402    9.472836
 -0.025961    3.519095    0.067120
 -0.025939    3.519107    6.337890
 -0.025917    3.519119   12.608661
 -0.027650    3.520092    3.202075
 -0.027628    3.520104    9.472846
