 2 Mo0.5b2                              
   1.0000000000000000     
     6.0780000686999998    0.0000000000000000    0.0000000000000000
    -3.0390007352000001    5.2637020589999999    0.0000000000000000
     0.0000000000000000    0.0000000000000000   22.2199993133999989
   Mo   V    B    H 
     8     6    40     2
Direct
  0.9992599333073797 -0.0006078704624103  0.2061565149596050
  0.9960802166215704 -0.0013319731114023  0.4841269735578067
  0.9991667101626994  0.9999226955087921  0.0693579322192816
  0.0037875196010366  0.0026635773150251  0.3460292168985989
  0.5000972328267497  0.4995024180063296  0.2061692412350029
  0.5060007149407395  0.5038258543010553  0.4832837211731596
  0.4992926530914547  0.4999485212252500  0.0693588950518460
  0.4981976612562533  0.4993374803336503  0.3461005192102021
  0.9990816657063457  0.4997758463783931  0.0701809986701301
  0.0011089038126011  0.4992018955356390  0.3445640936303925
  0.4993320636673618  0.0001974105437719  0.2067762387178328
  0.5036657444322987 -0.0058182991556063  0.4812080242289097
  0.4994197505687898  0.9998083412694169  0.0689201411024713
  0.4992817013226585  0.9973077575755416  0.3454192413254876
  0.1650379201588526  0.3340636085598418  0.9968055924382477
  0.1618005105406969  0.3395635454364123  0.5540324099006362
  0.1613637055660228  0.3375071228597755  0.2747414201806841
  0.1609289759648360  0.3383802517991042  0.1384216415941243
  0.1622382801704302  0.3372909602056476  0.4171589773739186
  0.8334167887307500  0.6656237157586101  0.9968262656230504
  0.8383428668070838  0.6593489981320837  0.5502457858627839
  0.8376657613988134  0.6614846044772852  0.2747956633306275
  0.8378536498767694  0.6615086528431142  0.1383457854601750
  0.8396274587009996  0.6602613513910717  0.4166354212887308
  0.6652116238149827  0.8340731629047982  0.9970761778792941
  0.6641410598370170  0.8373627719509690  0.5512915048867961
  0.6641959529383473  0.8356491129331083  0.2756970313680832
  0.6626224950082195  0.8365067848026679  0.1366776823749082
  0.6644261368021596  0.8365189987947004  0.4136584867109412
  0.3333844405246892  0.1658900062434112  0.9970275715996468
  0.3305724740440580  0.1709601462178320  0.5565028489558992
  0.3365528226207598  0.1634724146221234  0.2753325240061909
  0.3360004213126369  0.1631698454793639  0.1367184622443205
  0.3376065834299419  0.1626612845892733  0.4148772022592926
  0.1666407204958880  0.8320041463938778  0.9980732325333032
  0.1718595580352610  0.8373323166667408  0.5540780301570564
  0.1669094707495008  0.8276415120111870  0.2748365801157127
  0.1670424580084580  0.8279981547536570  0.1380402133293196
  0.1671411157553473  0.8276010476734375  0.4166552444278784
  0.8317467285471235  0.1678743577399318  0.9980355581773063
  0.8289008001239967  0.1693670647013732  0.5513699916416380
  0.8321723972669932  0.1708927564615798  0.2747220369998305
  0.8318246584108785  0.1716244574637578  0.1381598478853788
  0.8347830723029624  0.1738115809867651  0.4172106381388975
  0.6670957345049106  0.3324885905315045  0.9980189865087212
  0.6654857181717779  0.3305701821344119  0.5516822809583892
  0.6714996189441979  0.3323993770565906  0.2748013534395943
  0.6711437909022873  0.3321967102667436  0.1380726526946699
  0.6738465695352152  0.3331957909480376  0.4174653333715269
  0.3313803178321607  0.6674343495045078  0.9980604977579600
  0.3338256436469916  0.6728353979629771  0.5539214447589004
  0.3287832518962494  0.6673801491998399  0.2747836382678940
  0.3275303822899911  0.6674334843504395  0.1381353725237438
  0.3267297894790202  0.6661945580565583  0.4165099280746315
  0.2583828463721885  0.7662593012296529  0.6011437109994398
  0.2449942045632751  0.2609897235594675  0.6008733063046290

  0.00000000E+00  0.00000000E+00  0.00000000E+00
  0.00000000E+00  0.00000000E+00  0.00000000E+00
  0.00000000E+00  0.00000000E+00  0.00000000E+00
  0.00000000E+00  0.00000000E+00  0.00000000E+00
  0.00000000E+00  0.00000000E+00  0.00000000E+00
  0.00000000E+00  0.00000000E+00  0.00000000E+00
  0.00000000E+00  0.00000000E+00  0.00000000E+00
  0.00000000E+00  0.00000000E+00  0.00000000E+00
  0.00000000E+00  0.00000000E+00  0.00000000E+00
  0.00000000E+00  0.00000000E+00  0.00000000E+00
  0.00000000E+00  0.00000000E+00  0.00000000E+00
  0.00000000E+00  0.00000000E+00  0.00000000E+00
  0.00000000E+00  0.00000000E+00  0.00000000E+00
  0.00000000E+00  0.00000000E+00  0.00000000E+00
  0.00000000E+00  0.00000000E+00  0.00000000E+00
  0.00000000E+00  0.00000000E+00  0.00000000E+00
  0.00000000E+00  0.00000000E+00  0.00000000E+00
  0.00000000E+00  0.00000000E+00  0.00000000E+00
  0.00000000E+00  0.00000000E+00  0.00000000E+00
  0.00000000E+00  0.00000000E+00  0.00000000E+00
  0.00000000E+00  0.00000000E+00  0.00000000E+00
  0.00000000E+00  0.00000000E+00  0.00000000E+00
  0.00000000E+00  0.00000000E+00  0.00000000E+00
  0.00000000E+00  0.00000000E+00  0.00000000E+00
  0.00000000E+00  0.00000000E+00  0.00000000E+00
  0.00000000E+00  0.00000000E+00  0.00000000E+00
  0.00000000E+00  0.00000000E+00  0.00000000E+00
  0.00000000E+00  0.00000000E+00  0.00000000E+00
  0.00000000E+00  0.00000000E+00  0.00000000E+00
  0.00000000E+00  0.00000000E+00  0.00000000E+00
  0.00000000E+00  0.00000000E+00  0.00000000E+00
  0.00000000E+00  0.00000000E+00  0.00000000E+00
  0.00000000E+00  0.00000000E+00  0.00000000E+00
  0.00000000E+00  0.00000000E+00  0.00000000E+00
  0.00000000E+00  0.00000000E+00  0.00000000E+00
  0.00000000E+00  0.00000000E+00  0.00000000E+00
  0.00000000E+00  0.00000000E+00  0.00000000E+00
  0.00000000E+00  0.00000000E+00  0.00000000E+00
  0.00000000E+00  0.00000000E+00  0.00000000E+00
  0.00000000E+00  0.00000000E+00  0.00000000E+00
  0.00000000E+00  0.00000000E+00  0.00000000E+00
  0.00000000E+00  0.00000000E+00  0.00000000E+00
  0.00000000E+00  0.00000000E+00  0.00000000E+00
  0.00000000E+00  0.00000000E+00  0.00000000E+00
  0.00000000E+00  0.00000000E+00  0.00000000E+00
  0.00000000E+00  0.00000000E+00  0.00000000E+00
  0.00000000E+00  0.00000000E+00  0.00000000E+00
  0.00000000E+00  0.00000000E+00  0.00000000E+00
  0.00000000E+00  0.00000000E+00  0.00000000E+00
  0.00000000E+00  0.00000000E+00  0.00000000E+00
  0.00000000E+00  0.00000000E+00  0.00000000E+00
  0.00000000E+00  0.00000000E+00  0.00000000E+00
  0.00000000E+00  0.00000000E+00  0.00000000E+00
  0.00000000E+00  0.00000000E+00  0.00000000E+00
  0.00000000E+00  0.00000000E+00  0.00000000E+00
  0.00000000E+00  0.00000000E+00  0.00000000E+00
