MoVB2                                   
   1.0000000000000000     
    10.3670539856000001    0.0000000000000000    0.0000000000000000
     0.0000000000000000   24.2804012299000007    0.0000000000000000
     0.0000000000000000    0.0000000000000000    6.1360545157999997
   Mo   V    B    H 
    12    12    48     3
Selective dynamics
Direct
  0.9999924567191272  0.0043361521501666  0.0000000000000000   F   F   F
  0.0000021646458137  0.2514478288555537  0.0000000000000000   F   F   F
  0.4999828437470981  0.1242378488904592  0.0000000000000000   F   F   F
  0.0000171274308229  0.1242378488904592  0.0000000000000000   F   F   F
  0.5000074972311452  0.0043361521501666  0.0000000000000000   F   F   F
  0.4999978381707990  0.2514478288555537  0.0000000000000000   F   F   F
  0.7499999999807088  0.0620000362327673  0.5000000000162999   F   F   F
  0.7499999999807088  0.3091175610293178  0.5000000000162999   F   F   F
  0.2499999999614175  0.1891677388899140  0.5000000000162999   F   F   F
  0.2499999999614175  0.0619262141413230  0.5000000000162999   F   F   F
  0.2499999999614175  0.3090545009511345  0.5000000000162999   F   F   F
  0.7499999999807088  0.1892148129884461  0.5000000000162999   F   F   F
  0.9999650434346634  0.0061313318750535  0.5000000000162999   F   F   F
  0.0000338507931446  0.2503009641173506  0.5000000000162999   F   F   F
  0.4999951244779766  0.1250842110162509  0.5000000000162999   F   F   F
  0.0000048807501187  0.1250842110162509  0.5000000000162999   F   F   F
  0.5000349105156090  0.0061313318750535  0.5000000000162999   F   F   F
  0.4999661473934154  0.2503009641173506  0.5000000000162999   F   F   F
  0.7499999999807088  0.0631986246219967  0.0000000000000000   F   F   F
  0.7499999999807088  0.3073254449276135  0.0000000000000000   F   F   F
  0.2499999999614175  0.1883275531035693  0.0000000000000000   F   F   F
  0.2499999999614175  0.0631306990146570  0.0000000000000000   F   F   F
  0.2499999999614175  0.3073176679968199  0.0000000000000000   F   F   F
  0.7499999999807088  0.1883913005674316  0.0000000000000000   F   F   F
  0.9157708596084362  0.0608272679687545  0.2537309300285813   F   F   F
  0.9157708596084362  0.0608272679687545  0.7462690116603312   F   F   F
  0.9190792192492410  0.3165354377890424  0.2549433920399338   F   F   F
  0.9190792192492410  0.3165354377890424  0.7450566467798012   F   F   F
  0.4167001973753059  0.1883891010156447  0.2529129666309160   F   F   F
  0.4167001973753059  0.1883891010156447  0.7470869946145413   F   F   F
  0.0832998888787060  0.1883891010156447  0.2529129666309160   F   F   F
  0.0832998888787060  0.1883891010156447  0.7470869946145413   F   F   F
  0.5842291864605826  0.0608272679687545  0.2537309300285813   F   F   F
  0.5842291864605826  0.0608272679687545  0.7462690116603312   F   F   F
  0.5809208727344597  0.3165354377890424  0.2549433920399338   F   F   F
  0.5809208727344597  0.3165354377890424  0.7450566467798012   F   F   F
  0.9167180895556939  0.1884216424465919  0.2529430600728020   F   F   F
  0.9167180895556939  0.1884216424465919  0.7470569205662230   F   F   F
  0.4157727453707807  0.0607901998004223  0.2537466275749054   F   F   F
  0.4157727453707807  0.0607901998004223  0.7462533918512619   F   F   F
  0.4190111919966597  0.3165162114593159  0.2550045310013047   F   F   F
  0.4190111919966597  0.3165162114593159  0.7449955661621104   F   F   F
  0.0842272948720861  0.0607901998004223  0.2537466275749054   F   F   F
  0.0842272948720861  0.0607901998004223  0.7462533918512619   F   F   F
  0.0809888482462071  0.3165162114593159  0.2550045310013047   F   F   F
  0.0809888482462071  0.3165162114593159  0.7449955661621104   F   F   F
  0.5832818643945785  0.1884216424465919  0.2529430600728020   F   F   F
  0.5832818643945785  0.1884216424465919  0.7470569205662230   F   F   F
  0.6666647348996122  0.1250460038222556  0.2470770087026111   F   F   F
  0.6666647348996122  0.1250460038222556  0.7529229913299886   F   F   F
  0.1690079263051700  0.9968811280265513  0.2448645265668929   F   F   F
  0.1690079263051700  0.9968811280265513  0.7551354928592744   F   F   F
  0.1657703996127609  0.2526107385098300  0.2461557483087446   F   F   F
  0.1657703996127609  0.2526107385098300  0.7538442517238479   F   F   F
  0.3333291477791036  0.1249913098331632  0.2471395270519849   F   F   F
  0.3333291477791036  0.1249913098331632  0.7528604341934724   F   F   F
  0.8309718356792573  0.9969368235641696  0.2448814286331498   F   F   F
  0.8309718356792573  0.9969368235641696  0.7551185520058752   F   F   F
  0.8342468946349797  0.2526556523475207  0.2462728778091687   F   F   F
  0.8342468946349797  0.2526556523475207  0.7537271416169986   F   F   F
  0.1666708637188563  0.1249913098331632  0.2471395270519849   F   F   F
  0.1666708637188563  0.1249913098331632  0.7528604341934724   F   F   F
  0.6690281642821603  0.9969368235641696  0.2448814286331498   F   F   F
  0.6690281642821603  0.9969368235641696  0.7551185520058752   F   F   F
  0.6657530133041476  0.2526556523475207  0.2462728778091687   F   F   F
  0.6657530133041476  0.2526556523475207  0.7537271416169986   F   F   F
  0.8333352651582615  0.1250460038222556  0.2470770087026111   F   F   F
  0.8333352651582615  0.1250460038222556  0.7529229913299886   F   F   F
  0.3309920737141212  0.9968811280265513  0.2448645265668929   F   F   F
  0.3309920737141212  0.9968811280265513  0.7551354928592744   F   F   F
  0.3342296233638677  0.2526107385098300  0.2461557483087446   F   F   F
  0.3342296233638677  0.2526107385098300  0.7538442517238479   F   F   F
  0.4999628356521981  0.3598582253756248  0.2587672446376530   F   F   F
  0.4999650390974433  0.3599854800802541  0.7467998346943283   T   T   T
  0.0000333970379806  0.3599154508055784  0.2597559449519517   T   T   T

  0.00000000E+00  0.00000000E+00  0.00000000E+00
  0.00000000E+00  0.00000000E+00  0.00000000E+00
  0.00000000E+00  0.00000000E+00  0.00000000E+00
  0.00000000E+00  0.00000000E+00  0.00000000E+00
  0.00000000E+00  0.00000000E+00  0.00000000E+00
  0.00000000E+00  0.00000000E+00  0.00000000E+00
  0.00000000E+00  0.00000000E+00  0.00000000E+00
  0.00000000E+00  0.00000000E+00  0.00000000E+00
  0.00000000E+00  0.00000000E+00  0.00000000E+00
  0.00000000E+00  0.00000000E+00  0.00000000E+00
  0.00000000E+00  0.00000000E+00  0.00000000E+00
  0.00000000E+00  0.00000000E+00  0.00000000E+00
  0.00000000E+00  0.00000000E+00  0.00000000E+00
  0.00000000E+00  0.00000000E+00  0.00000000E+00
  0.00000000E+00  0.00000000E+00  0.00000000E+00
  0.00000000E+00  0.00000000E+00  0.00000000E+00
  0.00000000E+00  0.00000000E+00  0.00000000E+00
  0.00000000E+00  0.00000000E+00  0.00000000E+00
  0.00000000E+00  0.00000000E+00  0.00000000E+00
  0.00000000E+00  0.00000000E+00  0.00000000E+00
  0.00000000E+00  0.00000000E+00  0.00000000E+00
  0.00000000E+00  0.00000000E+00  0.00000000E+00
  0.00000000E+00  0.00000000E+00  0.00000000E+00
  0.00000000E+00  0.00000000E+00  0.00000000E+00
  0.00000000E+00  0.00000000E+00  0.00000000E+00
  0.00000000E+00  0.00000000E+00  0.00000000E+00
  0.00000000E+00  0.00000000E+00  0.00000000E+00
  0.00000000E+00  0.00000000E+00  0.00000000E+00
  0.00000000E+00  0.00000000E+00  0.00000000E+00
  0.00000000E+00  0.00000000E+00  0.00000000E+00
  0.00000000E+00  0.00000000E+00  0.00000000E+00
  0.00000000E+00  0.00000000E+00  0.00000000E+00
  0.00000000E+00  0.00000000E+00  0.00000000E+00
  0.00000000E+00  0.00000000E+00  0.00000000E+00
  0.00000000E+00  0.00000000E+00  0.00000000E+00
  0.00000000E+00  0.00000000E+00  0.00000000E+00
  0.00000000E+00  0.00000000E+00  0.00000000E+00
  0.00000000E+00  0.00000000E+00  0.00000000E+00
  0.00000000E+00  0.00000000E+00  0.00000000E+00
  0.00000000E+00  0.00000000E+00  0.00000000E+00
  0.00000000E+00  0.00000000E+00  0.00000000E+00
  0.00000000E+00  0.00000000E+00  0.00000000E+00
  0.00000000E+00  0.00000000E+00  0.00000000E+00
  0.00000000E+00  0.00000000E+00  0.00000000E+00
  0.00000000E+00  0.00000000E+00  0.00000000E+00
  0.00000000E+00  0.00000000E+00  0.00000000E+00
  0.00000000E+00  0.00000000E+00  0.00000000E+00
  0.00000000E+00  0.00000000E+00  0.00000000E+00
  0.00000000E+00  0.00000000E+00  0.00000000E+00
  0.00000000E+00  0.00000000E+00  0.00000000E+00
  0.00000000E+00  0.00000000E+00  0.00000000E+00
  0.00000000E+00  0.00000000E+00  0.00000000E+00
  0.00000000E+00  0.00000000E+00  0.00000000E+00
  0.00000000E+00  0.00000000E+00  0.00000000E+00
  0.00000000E+00  0.00000000E+00  0.00000000E+00
  0.00000000E+00  0.00000000E+00  0.00000000E+00
  0.00000000E+00  0.00000000E+00  0.00000000E+00
  0.00000000E+00  0.00000000E+00  0.00000000E+00
  0.00000000E+00  0.00000000E+00  0.00000000E+00
  0.00000000E+00  0.00000000E+00  0.00000000E+00
  0.00000000E+00  0.00000000E+00  0.00000000E+00
  0.00000000E+00  0.00000000E+00  0.00000000E+00
  0.00000000E+00  0.00000000E+00  0.00000000E+00
  0.00000000E+00  0.00000000E+00  0.00000000E+00
  0.00000000E+00  0.00000000E+00  0.00000000E+00
  0.00000000E+00  0.00000000E+00  0.00000000E+00
  0.00000000E+00  0.00000000E+00  0.00000000E+00
  0.00000000E+00  0.00000000E+00  0.00000000E+00
  0.00000000E+00  0.00000000E+00  0.00000000E+00
  0.00000000E+00  0.00000000E+00  0.00000000E+00
  0.00000000E+00  0.00000000E+00  0.00000000E+00
  0.00000000E+00  0.00000000E+00  0.00000000E+00
  0.00000000E+00  0.00000000E+00  0.00000000E+00
  0.00000000E+00  0.00000000E+00  0.00000000E+00
  0.00000000E+00  0.00000000E+00  0.00000000E+00
