MoB2                                    
1.0
        8.6453199387         0.0000000000         0.0000000000
       -2.1414606584         5.6957327635         0.0000000000
       -0.2384319305        -9.8409511943        23.9952660313
   Mo    V    B    H
   12    4   32    2
Selective dynamics
Cartesian
     7.379870415        -3.720879555        15.907861710    F F F
    -1.170716047        -2.063224554        12.008452415   F F F
     1.986480355        -0.873013496        15.907861710   F F F
     4.222674847        -4.911090374        12.008452415   F F F
     2.081637859        -4.092429161        10.088856697   F F F
     2.019965887        -5.735435963        13.987914085   F F F
     1.015663624        -1.244241714        10.086537361   F F F
     0.949708998        -2.900366306        13.984049797   F F F
     6.409055710        -4.092107773        10.086537361   F F F
     4.201638222        -0.052500248        13.984049797   F F F
     5.333567619        -1.244562864        10.088856697   F F F
     5.271893501        -2.887570143        13.987914085   F F F
    -0.115574248        -4.921167374        12.031397820   F F F
     3.136356115        -2.073301315        12.031397820   F F F
     6.325488567        -0.876511097        15.888547897   F F F
     3.073559284        -3.724377632        15.888547897   F F F
     3.151537418        -2.064550877         9.626886368    F F F
     3.119091034        -3.691874981        13.682630539   F F F
     2.082351446         0.782444477         9.577541351     F F F
     2.054869652        -0.865533829        13.678254128   F F F
     7.475741863        -2.065422058         9.577541351    F F F
     7.448259354        -3.713399887        13.678254128   F F F
     6.403466702         0.783315182         9.626886368     F F F
     6.371021748        -0.844009399        13.682630539   F F F
     0.959448636        -2.900179386        11.631623268   F F F
     0.894627154        -4.548081398        16.029108047   F F F
    -0.132466227        -0.037091732        11.629714012   F F F
    -0.215706453        -1.698155403        16.217430115   F F F
     5.260923862        -2.884957790        11.629714012   F F F
     5.177685261        -4.546021461        16.217430115   F F F
     4.211380005        -0.052312851        11.631623268   F F F
     4.146555901        -1.700215340        16.029108047   F F F
    -0.048190460        -3.268722057         9.852952957    F F F
    -0.121070608        -4.936943054        14.370010376   F F F
    -1.127280712        -0.423552513         9.893162727    F F F
    -1.199890971        -2.057595253        14.391411781   F F F
     4.266109943        -3.271417618         9.893162727    F F F
     4.193499565        -4.905461311        14.391411781   F F F
     3.203739882        -0.420856476         9.852952957    F F F
     3.130858421        -2.089078188        14.370010376   F F F
     1.983901978        -5.748246193        16.373374939   F F F
     2.036362886        -4.095590591        12.310500145   F F F
     0.929324448        -2.908443213        16.392679214   F F F
     1.008602738        -1.262921810        12.297554970   F F F
     6.322712898        -5.756309032        16.392679214   F F F
     6.401992321        -4.110787392        12.297554970   F F F
     5.235831738        -2.900381088        16.373374939   F F F
     5.288290501        -1.247725248        12.310500145   F F F
     4.051937532        -5.294758797        17.228147507   T T T
    -1.054635954        -2.087810898        17.266868591   T T T
