VB2                                     
1.0
        8.7336034775         0.0000000000         0.0000000000
       -2.1192828999         5.6981405836         0.0000000000
        0.6742611349         8.3713961889        20.1541324356
   Mo    V    B     H
    8       8   32     1
Selective dynamics
Cartesian
     8.987969398         3.353796005         8.042217255  F F F 
     2.381021023         7.378553391         4.168695927  F F F 
     4.648536205         8.204321861         6.065675735  F F F 
     2.521881580         4.179563999         9.939197540  F F F 
     1.341376543         5.355251312         6.065675735  F F F 
     5.829041481         7.028634071         9.939197540  F F F 
     7.807464123         4.529482841         4.168695927  F F F 
     3.561525583         6.202866554         8.042217255  F F F 
     7.920635700         6.179351330         8.013033867  F F F 
     3.452978373         4.520660400         4.193732738  F F F 
     5.715870380         5.378766060         6.094859123  F F F 
     1.449923873         7.037456512         9.914160728  F F F 
     0.289427340         8.227835655         6.094859123  F F F 
     6.876367569         4.188386440         9.914160728  F F F 
     6.760138512         7.369731426         4.193732738  F F F 
     4.613474846         3.330281258         8.013033867  F F F 
     1.333455324         5.395690441         8.423203468  F F F 
     5.592825413         3.714440346         4.072923183  F F F 
     7.859008789         4.569397449         6.376698971  F F F 
     3.599506855         6.207642078        10.400681496 F F F 
     3.569447279         6.162427902         5.684690475  F F F 
    -0.689923882         7.843676567        10.034968376 F F F 
     1.303395510         5.350475311         3.707212210  F F F 
     5.777497292         6.988719940         7.731194496  F F F 
     2.432565451         7.418467522         6.376698971  F F F 
     6.906667233         9.056712151        10.400681496 F F F 
     0.166382983         6.563510895         4.072923183  F F F 
     4.640615463         8.244760513         8.423203468  F F F 
     2.470336914         4.139649868         7.731194496  F F F 
     6.729839325         2.501405239         3.707212210  F F F 
     0.262287050         3.313357353         5.684690475  F F F 
     4.736518383         4.994606972        10.034968376 F F F 
     0.306389332         8.200787544         8.396266937  F F F 
     4.578026295         6.556318283         4.111768723  F F F 
     6.846130371         7.387329102         6.376529694  F F F 
     2.532212734         9.050753593        10.339658737 F F F 
     4.596512794         3.357330084         5.711626530  F F F 
     0.324876159         5.001799107         9.996123314  F F F 
     2.370689869         2.507362843         3.768233538  F F F 
     6.790376186         4.170787334         7.731362343  F F F 
     3.538969517         4.538259506         6.376529694  F F F 
     7.958657265         6.201684475        10.339658737 F F F 
     1.270865917         3.707248211         4.111768723  F F F 
     5.732831955         5.351717949         8.396266937  F F F 
     1.363933325         7.019857407         7.731362343  F F F 
     5.677850246         5.356432915         3.768233538  F F F 
    -0.829929709         6.206399918         5.711626530  F F F 
     3.632035732         7.850869179         9.996123314  F F F 
	 3.636642933         7.326858521        11.411314011 T T T
