 2 Mo0.5b2                              
   1.0000000000000000     
     6.0780000686999998    0.0000000000000000    0.0000000000000000
    -3.0390007352000001    5.2637020589999999    0.0000000000000000
     0.0000000000000000    0.0000000000000000   22.2199993133999989
   Mo   V    B    H 
     8     6    40     1
Direct
  0.9998918701178227  0.0004160556270453  0.2060858042205657
  0.9977038130131446 -0.0021336374819368  0.4830502381019984
  0.9993475635368259  0.0002648642524624  0.0693563817591787
  0.0012647416915182  0.0025763416782432  0.3464549514296365
  0.4998254255831550  0.5003238790128072  0.2061066151403904
  0.5034770870353610  0.5036735386471254  0.4831021529012758
  0.4994381818660742  0.5003861272669082  0.0693519960556896
  0.4986514782959676  0.4999570749292218  0.3464435838478854
  0.9994540164097108  0.5002453039424543  0.0701815913512418
  0.0005934346204806  0.5004006934415384  0.3450605591990640
  0.4996432234088857  0.0006749945624962  0.2069418353674982
  0.5046701049696022 -0.0032569945826010  0.4844290855801998
  0.4993963344554291  0.0002271205846165  0.0688873873364284
  0.5001077326979905  0.0009305693148000  0.3458008216674260
  0.1651967951347142  0.3343150859901448  0.9968290253958970
  0.1630899893223883  0.3382586944613178  0.5549989158261861
  0.1621967418734877  0.3385450145516849  0.2747985666798526
  0.1609860361776355  0.3389166665869900  0.1383351860482675
  0.1613990463501111  0.3399188508527645  0.4173782964450800
  0.8335792723176095  0.6659733966492666  0.9968032703609755
  0.8356704691302324  0.6658414570987171  0.5540150982323809
  0.8376237700106475  0.6631341170219602  0.2748830634030413
  0.8380223105944753  0.6618585811802870  0.1383417288802089
  0.8402875393270385  0.6610096159969925  0.4167001100704254
  0.6652532242197153  0.8342786928305252  0.9970698558818445
  0.6660818205781979  0.8354831351015303  0.5523386925394769
  0.6642507704067859  0.8365771341829449  0.2757130231577345
  0.6628013606657179  0.8370628542711566  0.1366647150184948
  0.6640894640012552  0.8372626757000415  0.4137407758337244
  0.3334976332086805  0.1660446701991484  0.9970447110881007
  0.3316135053869288  0.1697488623488158  0.5539950215071983
  0.3361957635632849  0.1645762922046095  0.2754220042330076
  0.3362300961499323  0.1636616766477259  0.1366957071424454
  0.3373869953579998  0.1638751812527197  0.4147289613256779
  0.1667454417780199  0.8322401287024134  0.9980523549419588
  0.1659379930232918  0.8289631488392888  0.5504698385141047
  0.1671505737473325  0.8288491260695587  0.2748465407760281
  0.1672327581394835  0.8285191757912937  0.1380837052526528
  0.1683028313046519  0.8287720468291233  0.4169604585421282
  0.8319293129822964  0.1680854262719381  0.9980512475476525
  0.8327778621585875  0.1706557002835153  0.5515736751431584
  0.8325582383109567  0.1721190962656470  0.2747888517949589
  0.8318128667652731  0.1720726571618393  0.1381175932840595
  0.8330780656964970  0.1729594298936674  0.4166409120168188
  0.6672803662452290  0.3327746769695973  0.9980487754665851
  0.6725264192979556  0.3355351225828719  0.5503931117037362
  0.6719857858518924  0.3336437591573229  0.2748118818878423
  0.6713100464122087  0.3326153951332204  0.1380634663777096
  0.6725412055251617  0.3330657226777403  0.4169974627796350
  0.3314206861727662  0.6675727347337581  0.9980552546271607
  0.3308439505521116  0.6687295116483345  0.5516543220192299
  0.3286869315374332  0.6682444542944940  0.2748040013249312
  0.3277730108312933  0.6680409141932083  0.1381326877114611
  0.3284366542790811  0.6682403304621239  0.4166417303179865
  0.2506011119973318  0.2493304278108480  0.6006652621986676

  0.00000000E+00  0.00000000E+00  0.00000000E+00
  0.00000000E+00  0.00000000E+00  0.00000000E+00
  0.00000000E+00  0.00000000E+00  0.00000000E+00
  0.00000000E+00  0.00000000E+00  0.00000000E+00
  0.00000000E+00  0.00000000E+00  0.00000000E+00
  0.00000000E+00  0.00000000E+00  0.00000000E+00
  0.00000000E+00  0.00000000E+00  0.00000000E+00
  0.00000000E+00  0.00000000E+00  0.00000000E+00
  0.00000000E+00  0.00000000E+00  0.00000000E+00
  0.00000000E+00  0.00000000E+00  0.00000000E+00
  0.00000000E+00  0.00000000E+00  0.00000000E+00
  0.00000000E+00  0.00000000E+00  0.00000000E+00
  0.00000000E+00  0.00000000E+00  0.00000000E+00
  0.00000000E+00  0.00000000E+00  0.00000000E+00
  0.00000000E+00  0.00000000E+00  0.00000000E+00
  0.00000000E+00  0.00000000E+00  0.00000000E+00
  0.00000000E+00  0.00000000E+00  0.00000000E+00
  0.00000000E+00  0.00000000E+00  0.00000000E+00
  0.00000000E+00  0.00000000E+00  0.00000000E+00
  0.00000000E+00  0.00000000E+00  0.00000000E+00
  0.00000000E+00  0.00000000E+00  0.00000000E+00
  0.00000000E+00  0.00000000E+00  0.00000000E+00
  0.00000000E+00  0.00000000E+00  0.00000000E+00
  0.00000000E+00  0.00000000E+00  0.00000000E+00
  0.00000000E+00  0.00000000E+00  0.00000000E+00
  0.00000000E+00  0.00000000E+00  0.00000000E+00
  0.00000000E+00  0.00000000E+00  0.00000000E+00
  0.00000000E+00  0.00000000E+00  0.00000000E+00
  0.00000000E+00  0.00000000E+00  0.00000000E+00
  0.00000000E+00  0.00000000E+00  0.00000000E+00
  0.00000000E+00  0.00000000E+00  0.00000000E+00
  0.00000000E+00  0.00000000E+00  0.00000000E+00
  0.00000000E+00  0.00000000E+00  0.00000000E+00
  0.00000000E+00  0.00000000E+00  0.00000000E+00
  0.00000000E+00  0.00000000E+00  0.00000000E+00
  0.00000000E+00  0.00000000E+00  0.00000000E+00
  0.00000000E+00  0.00000000E+00  0.00000000E+00
  0.00000000E+00  0.00000000E+00  0.00000000E+00
  0.00000000E+00  0.00000000E+00  0.00000000E+00
  0.00000000E+00  0.00000000E+00  0.00000000E+00
  0.00000000E+00  0.00000000E+00  0.00000000E+00
  0.00000000E+00  0.00000000E+00  0.00000000E+00
  0.00000000E+00  0.00000000E+00  0.00000000E+00
  0.00000000E+00  0.00000000E+00  0.00000000E+00
  0.00000000E+00  0.00000000E+00  0.00000000E+00
  0.00000000E+00  0.00000000E+00  0.00000000E+00
  0.00000000E+00  0.00000000E+00  0.00000000E+00
  0.00000000E+00  0.00000000E+00  0.00000000E+00
  0.00000000E+00  0.00000000E+00  0.00000000E+00
  0.00000000E+00  0.00000000E+00  0.00000000E+00
  0.00000000E+00  0.00000000E+00  0.00000000E+00
  0.00000000E+00  0.00000000E+00  0.00000000E+00
  0.00000000E+00  0.00000000E+00  0.00000000E+00
  0.00000000E+00  0.00000000E+00  0.00000000E+00
  0.00000000E+00  0.00000000E+00  0.00000000E+00
