B2 Mo                                   
   1.0000000000000000     
     6.0715008848171896    0.0012229821858563    0.0000000000000000
    -3.0346920089492824    5.2586850923205137    0.0000000000000000
     0.0000000000000000    0.0000000000000000    6.4658317027747847
   Mo   V    B 
     6     2    16
Direct
 -0.0000000000000000 -0.0000000000000000  0.5000000000409131
  0.9999999919906983  0.4999999864164053  0.0000000000000000
  0.9999999919906983  0.4999999864164053  0.5000000000409131
  0.4999999999424176 -0.0000000000000000  0.0000000000000000
  0.4999999999424176 -0.0000000000000000  0.5000000000409131
  0.4999999920976350  0.4999999864164053  0.0000000000000000
 -0.0000000000000000 -0.0000000000000000  0.0000000000000000
  0.4999999920976350  0.4999999864164053  0.5000000000409131
  0.1676069488922977  0.3323930595055797  0.2499999999386233
  0.1676069488922977  0.3323930595055797  0.7499999805032758
  0.1655851186185548  0.8344148486076104  0.2461071877791288
  0.1655851186185548  0.8344148486076104  0.7538927926627703
  0.6655851461490874  0.3344148621912052  0.2538928120981178
  0.6655851461490874  0.3344148621912052  0.7461071683437812
  0.6676069212466005  0.8323930459219848  0.2499999999386233
  0.6676069212466005  0.8323930459219848  0.7499999805032758
  0.3323930236265311  0.1676069269108257  0.2499999999386233
  0.3323930236265311  0.1676069269108257  0.7499999805032758
  0.3344148152739914  0.6655850654262754  0.2538928120981178
  0.3344148152739914  0.6655850654262754  0.7461071683437812
  0.8344147477748118  0.1655851242252002  0.2461071877791288
  0.8344147477748118  0.1655851242252002  0.7538927926627703
  0.8323929733731616  0.6676068681119010  0.2499999999386233
  0.8323929733731616  0.6676068681119010  0.7499999805032758

  0.00000000E+00  0.00000000E+00  0.00000000E+00
  0.00000000E+00  0.00000000E+00  0.00000000E+00
  0.00000000E+00  0.00000000E+00  0.00000000E+00
  0.00000000E+00  0.00000000E+00  0.00000000E+00
  0.00000000E+00  0.00000000E+00  0.00000000E+00
  0.00000000E+00  0.00000000E+00  0.00000000E+00
  0.00000000E+00  0.00000000E+00  0.00000000E+00
  0.00000000E+00  0.00000000E+00  0.00000000E+00
  0.00000000E+00  0.00000000E+00  0.00000000E+00
  0.00000000E+00  0.00000000E+00  0.00000000E+00
  0.00000000E+00  0.00000000E+00  0.00000000E+00
  0.00000000E+00  0.00000000E+00  0.00000000E+00
  0.00000000E+00  0.00000000E+00  0.00000000E+00
  0.00000000E+00  0.00000000E+00  0.00000000E+00
  0.00000000E+00  0.00000000E+00  0.00000000E+00
  0.00000000E+00  0.00000000E+00  0.00000000E+00
  0.00000000E+00  0.00000000E+00  0.00000000E+00
  0.00000000E+00  0.00000000E+00  0.00000000E+00
  0.00000000E+00  0.00000000E+00  0.00000000E+00
  0.00000000E+00  0.00000000E+00  0.00000000E+00
  0.00000000E+00  0.00000000E+00  0.00000000E+00
  0.00000000E+00  0.00000000E+00  0.00000000E+00
  0.00000000E+00  0.00000000E+00  0.00000000E+00
  0.00000000E+00  0.00000000E+00  0.00000000E+00
