MoB2                                    
   1.0000000000000000     
    10.5395298004000004    0.0000000000000000    0.0000000000000000
     0.0000000000000000    6.1412000655999996    0.0000000000000000
     0.0000000000000000    0.0000000000000000   24.1274995803999985
   Mo   V    B 
    18     6    48
Direct
 -0.0000000000000000 -0.0000000000000000  0.1248933094065431
 -0.0000000000000000  0.4999999946590279  0.3743973257651068
 -0.0000000000000000  0.4999999946590279  0.2538179445680629
  0.5000000094691117 -0.0000000000000000  0.3743973257651068
  0.5000000094691117 -0.0000000000000000  0.2538179445680629
  0.5000000094691117  0.4999999946590279  0.1248933094065431
  0.2505429645104220 -0.0000000000000000  0.0667882828881658
  0.2494202394475578 -0.0000000000000000  0.1881005605589312
  0.2504433989694736 -0.0000000000000000  0.3164421357779179
  0.2494569500777935  0.4999999946590279  0.0667882828881658
  0.2505796751406579  0.4999999946590279  0.1881005605589312
  0.2495565156187421  0.4999999946590279  0.3164421357779179
  0.7494569595469124 -0.0000000000000000  0.0667882828881658
  0.7505796846097766 -0.0000000000000000  0.1881005605589312
  0.7495565250878611 -0.0000000000000000  0.3164421357779179
  0.7505429739795410  0.4999999946590279  0.0667882828881658
  0.7494202489166767  0.4999999946590279  0.1881005605589312
  0.7504434084385923  0.4999999946590279  0.3164421357779179
 -0.0000000000000000 -0.0000000000000000  0.3741498333786622
  0.5000000094691117  0.4999999946590279  0.3741498333786622
 -0.0000000000000000  0.4999999946590279  0.1260630044604600
  0.5000000094691117 -0.0000000000000000  0.1260630044604600
 -0.0000000000000000 -0.0000000000000000  0.2538580696929551
  0.5000000094691117  0.4999999946590279  0.2538580696929551
  0.0800852589192712  0.2585768784061883  0.0576018788940220
  0.0819915036788865  0.2511011438456716  0.1883542602733733
  0.0830454539982198  0.2402128185255322  0.3184267151052544
  0.0800852589192712  0.7414231109118605  0.0576018788940220
  0.0819915036788865  0.7488988454723775  0.1883542602733733
  0.0830454539982198  0.7597871707925166  0.3184267151052544
  0.5800852683883830  0.2414231162528325  0.0576018788940220
  0.5819915131479982  0.2488988508133493  0.1883542602733733
  0.5830454634673313  0.2597871761334885  0.3184267151052544
  0.5800852683883830  0.7585768730652160  0.0576018788940220
  0.5819915131479982  0.7511011385046991  0.1883542602733733
  0.5830454634673313  0.7402128131845600  0.3184267151052544
  0.3310487326757198  0.2494430664802987  0.3835564720073426
  0.3361668808582722  0.2459603926019876  0.1228406220268104
  0.3348109038659129  0.2544271462574177  0.2528491870345996
  0.3310487326757198  0.7505569228377498  0.3835564720073426
  0.3361668808582722  0.7540395967160611  0.1228406220268104
  0.3348109038659129  0.7455728430606310  0.2528491870345996
  0.8310487421448316  0.2505569281787220  0.3835564720073426
  0.8361668903273838  0.2540396020570332  0.1228406220268104
  0.8348109133350248  0.2455728484016031  0.2528491870345996
  0.8310487421448316  0.7494430611393268  0.3835564720073426
  0.8361668903273838  0.7459603872610154  0.1228406220268104
  0.8348109133350248  0.7544271409164456  0.2528491870345996
  0.4199147505498405  0.2414231162528325  0.0576018788940220
  0.4180085057902254  0.2488988508133493  0.1883542602733733
  0.4169545554708919  0.2597871761334885  0.3184267151052544
  0.4199147505498405  0.7585768730652160  0.0576018788940220
  0.4180085057902254  0.7511011385046991  0.1883542602733733
  0.4169545554708919  0.7402128131845600  0.3184267151052544
  0.9199147600189592  0.2585768784061883  0.0576018788940220
  0.9180085152593440  0.2511011438456716  0.1883542602733733
  0.9169545649400109  0.2402128185255322  0.3184267151052544
  0.9199147600189592  0.7414231109118605  0.0576018788940220
  0.9180085152593440  0.7488988454723775  0.1883542602733733
  0.9169545649400109  0.7597871707925166  0.3184267151052544
  0.1689512767933991  0.2505569281787220  0.3835564720073426
  0.1638331286108466  0.2540396020570332  0.1228406220268104
  0.1651891056032059  0.2455728484016031  0.2528491870345996
  0.1689512767933991  0.7494430611393268  0.3835564720073426
  0.1638331286108466  0.7459603872610154  0.1228406220268104
  0.1651891056032059  0.7544271409164456  0.2528491870345996
  0.6689512862625107  0.2494430664802987  0.3835564720073426
  0.6638331380799585  0.2459603926019876  0.1228406220268104
  0.6651891150723175  0.2544271462574177  0.2528491870345996
  0.6689512862625107  0.7505569228377498  0.3835564720073426
  0.6638331380799585  0.7540395967160611  0.1228406220268104
  0.6651891150723175  0.7455728430606310  0.2528491870345996

  0.00000000E+00  0.00000000E+00  0.00000000E+00
  0.00000000E+00  0.00000000E+00  0.00000000E+00
  0.00000000E+00  0.00000000E+00  0.00000000E+00
  0.00000000E+00  0.00000000E+00  0.00000000E+00
  0.00000000E+00  0.00000000E+00  0.00000000E+00
  0.00000000E+00  0.00000000E+00  0.00000000E+00
  0.00000000E+00  0.00000000E+00  0.00000000E+00
  0.00000000E+00  0.00000000E+00  0.00000000E+00
  0.00000000E+00  0.00000000E+00  0.00000000E+00
  0.00000000E+00  0.00000000E+00  0.00000000E+00
  0.00000000E+00  0.00000000E+00  0.00000000E+00
  0.00000000E+00  0.00000000E+00  0.00000000E+00
  0.00000000E+00  0.00000000E+00  0.00000000E+00
  0.00000000E+00  0.00000000E+00  0.00000000E+00
  0.00000000E+00  0.00000000E+00  0.00000000E+00
  0.00000000E+00  0.00000000E+00  0.00000000E+00
  0.00000000E+00  0.00000000E+00  0.00000000E+00
  0.00000000E+00  0.00000000E+00  0.00000000E+00
  0.00000000E+00  0.00000000E+00  0.00000000E+00
  0.00000000E+00  0.00000000E+00  0.00000000E+00
  0.00000000E+00  0.00000000E+00  0.00000000E+00
  0.00000000E+00  0.00000000E+00  0.00000000E+00
  0.00000000E+00  0.00000000E+00  0.00000000E+00
  0.00000000E+00  0.00000000E+00  0.00000000E+00
  0.00000000E+00  0.00000000E+00  0.00000000E+00
  0.00000000E+00  0.00000000E+00  0.00000000E+00
  0.00000000E+00  0.00000000E+00  0.00000000E+00
  0.00000000E+00  0.00000000E+00  0.00000000E+00
  0.00000000E+00  0.00000000E+00  0.00000000E+00
  0.00000000E+00  0.00000000E+00  0.00000000E+00
  0.00000000E+00  0.00000000E+00  0.00000000E+00
  0.00000000E+00  0.00000000E+00  0.00000000E+00
  0.00000000E+00  0.00000000E+00  0.00000000E+00
  0.00000000E+00  0.00000000E+00  0.00000000E+00
  0.00000000E+00  0.00000000E+00  0.00000000E+00
  0.00000000E+00  0.00000000E+00  0.00000000E+00
  0.00000000E+00  0.00000000E+00  0.00000000E+00
  0.00000000E+00  0.00000000E+00  0.00000000E+00
  0.00000000E+00  0.00000000E+00  0.00000000E+00
  0.00000000E+00  0.00000000E+00  0.00000000E+00
  0.00000000E+00  0.00000000E+00  0.00000000E+00
  0.00000000E+00  0.00000000E+00  0.00000000E+00
  0.00000000E+00  0.00000000E+00  0.00000000E+00
  0.00000000E+00  0.00000000E+00  0.00000000E+00
  0.00000000E+00  0.00000000E+00  0.00000000E+00
  0.00000000E+00  0.00000000E+00  0.00000000E+00
  0.00000000E+00  0.00000000E+00  0.00000000E+00
  0.00000000E+00  0.00000000E+00  0.00000000E+00
  0.00000000E+00  0.00000000E+00  0.00000000E+00
  0.00000000E+00  0.00000000E+00  0.00000000E+00
  0.00000000E+00  0.00000000E+00  0.00000000E+00
  0.00000000E+00  0.00000000E+00  0.00000000E+00
  0.00000000E+00  0.00000000E+00  0.00000000E+00
  0.00000000E+00  0.00000000E+00  0.00000000E+00
  0.00000000E+00  0.00000000E+00  0.00000000E+00
  0.00000000E+00  0.00000000E+00  0.00000000E+00
  0.00000000E+00  0.00000000E+00  0.00000000E+00
  0.00000000E+00  0.00000000E+00  0.00000000E+00
  0.00000000E+00  0.00000000E+00  0.00000000E+00
  0.00000000E+00  0.00000000E+00  0.00000000E+00
  0.00000000E+00  0.00000000E+00  0.00000000E+00
  0.00000000E+00  0.00000000E+00  0.00000000E+00
  0.00000000E+00  0.00000000E+00  0.00000000E+00
  0.00000000E+00  0.00000000E+00  0.00000000E+00
  0.00000000E+00  0.00000000E+00  0.00000000E+00
  0.00000000E+00  0.00000000E+00  0.00000000E+00
  0.00000000E+00  0.00000000E+00  0.00000000E+00
  0.00000000E+00  0.00000000E+00  0.00000000E+00
  0.00000000E+00  0.00000000E+00  0.00000000E+00
  0.00000000E+00  0.00000000E+00  0.00000000E+00
  0.00000000E+00  0.00000000E+00  0.00000000E+00
  0.00000000E+00  0.00000000E+00  0.00000000E+00
