MoB2                                    
1.0
       10.5395298004         0.0000000000         0.0000000000
        0.0000000000         6.1412000656         0.0000000000
        0.0000000000         0.0000000000        24.1275005341
   Mo    V    B    H
   18    6   48    4
Selective dynamics
Cartesian
     0.000000000         0.000000000         3.013363361  F F F
     0.000000000         3.070600033         9.033271790  F F F
     0.000000000         3.070600033         6.123992443  F F F
     5.269764900         0.000000000         9.033271790  F F F
     5.269764900         0.000000000         6.123992443  F F F
     5.269764900         3.070600033         3.013363361  F F F
     2.640604973         0.000000000         1.611434460  F F F
     2.628772020         0.000000000         4.538396358  F F F
     2.639555693         0.000000000         7.634957790  F F F
     2.629158974         3.070600033         1.611434460  F F F
     2.640992165         3.070600033         4.538396358  F F F
     2.630208254         3.070600033         7.634957790  F F F
     7.898923874         0.000000000         1.611434460  F F F
     7.910756588         0.000000000         4.538396358  F F F
     7.899973392         0.000000000         7.634957790  F F F
     7.910370350         3.070600033         1.611434460  F F F
     7.898536682         3.070600033         4.538396358  F F F
     7.909320354         3.070600033         7.634957790  F F F
     0.000000000         0.000000000         9.027299881  F F F
     5.269764900         3.070600033         9.027299881  F F F
     0.000000000         3.070600033         3.041585207  F F F
     5.269764900         0.000000000         3.041585207  F F F
     0.000000000         0.000000000         6.124960423  F F F
     5.269764900         3.070600033         6.124960423  F F F
     0.844060957         1.587972283         1.389789343  F F F
     0.864151895         1.542062283         4.544517517  F F F
     0.875259995         1.475194931         7.682840824  F F F
     0.844060957         4.553227901         1.389789343  F F F
     0.864151895         4.599137783         4.544517517  F F F
     0.875259995         4.666004658         7.682840824  F F F
     6.113826275         1.482627630         1.389789343  F F F
     6.133916855         1.528537631         4.544517517  F F F
     6.145025253         1.595404983         7.682840824  F F F
     6.113826275         4.658572197         1.389789343  F F F
     6.133916855         4.612662315         4.544517517  F F F
     6.145025253         4.545794964         7.682840824  F F F
     3.489097834         1.531879783         9.254259109  F F F
     3.543040991         1.510491967         2.963837147  F F F
     3.528749704         1.562487960         6.100618839  F F F
     3.489097834         4.609320164         9.254259109  F F F
     3.543040991         4.630707741         2.963837147  F F F
     3.528749704         4.578711987         6.100618839  F F F
     8.758862495         1.538720131         9.254259109  F F F
     8.812806129         1.560108066         2.963837147  F F F
     8.798514366         1.508111954         6.100618839  F F F
     8.758862495         4.602479935         9.254259109  F F F
     8.812806129         4.581092358         2.963837147  F F F
     8.798514366         4.633088112         6.100618839  F F F
     4.425704002         1.482627630         1.389789343  F F F
     4.405612946         1.528537631         4.544517517  F F F
     4.394505024         1.595404983         7.682840824  F F F
     4.425704002         4.658572197         1.389789343  F F F
     4.405612946         4.612662315         4.544517517  F F F
     4.394505024         4.545794964         7.682840824  F F F
     9.695468903         1.587972283         1.389789343  F F F
     9.675377846         1.542062283         4.544517517  F F F
     9.664270401         1.475194931         7.682840824  F F F
     9.695468903         4.553227901         1.389789343  F F F
     9.675377846         4.599137783         4.544517517  F F F
     9.664270401         4.666004658         7.682840824  F F F
     1.780666947         1.538720131         9.254259109  F F F
     1.726724148         1.560108066         2.963837147  F F F
     1.741015434         1.508111954         6.100618839  F F F
     1.780666947         4.602479935         9.254259109  F F F
     1.726724148         4.581092358         2.963837147  F F F
     1.741015434         4.633088112         6.100618839  F F F
     7.050431728         1.531879783         9.254259109  F F F
     6.996489048         1.510491967         2.963837147  F F F
     7.010780334         1.562487960         6.100618839  F F F
     7.050431728         4.609320164         9.254259109  F F F
     6.996489048         4.630707741         2.963837147  F F F
     7.010780334         4.578711987         6.100618839  F F F
     7.904693604         4.610191345        10.301996231 T T T
	 7.904693604         1.546431345        10.301996231 T T T
	 2.634923604         4.610191345        10.301996231 T T T
	 2.634923604         1.546431345        10.301996231 T T T
