B2 Mo                                   
   1.0000000000000000     
     6.0780000686999998    0.0000000000000000    0.0000000000000000
    -3.0390007352000001    5.2637020589999999    0.0000000000000000
     0.0000000000000000    0.0000000000000000   18.3299999237000009
   Mo   V    B    H 
     6     1    16     1
Direct
  0.0024068139865034  0.0009572724698975  0.4207834497262915
  0.0006011336722126  0.4993608444768127  0.5824107911594006
  0.0024893432371793  0.5018011454142595  0.4213811633319197
  0.5040293433897113  0.0028154861759332  0.5824405549528748
  0.5013910734793278  0.0007727537403305  0.4213658366736898
  0.5048287584267570  0.4984728113149238  0.5825920250290635
  0.5014149231085032  0.5017352382919779  0.4232462839066888
  0.1654904134828027  0.3275772568094640  0.6650106564855892
  0.1682555297353953  0.3312218801409312  0.4974901112469842
  0.1651798270200249  0.8383873468211940  0.6693949382447342
  0.1654963588303482  0.8377249443544624  0.4989823515960333
  0.6689637738923478  0.3345685775646867  0.6676982334475353
  0.6665927192341230  0.3365844900309841  0.4940914416034807
  0.6759472081918901  0.8379471151514007  0.6649704397591516
  0.6720114337868969  0.8349793000317779  0.4974244684072655
  0.3340983845677758  0.1677040731196990  0.6673045645179767
  0.3316498444801145  0.1675218484584015  0.4970072848082273
  0.3334758105003836  0.6698639249420006  0.6692246244515696
  0.3369093369797388  0.6663892583990317  0.4945661138162158
  0.8375451013059341  0.1658594779746153  0.6679590571278393
  0.8384063485030181  0.1648448399340185  0.4981616999925286
  0.8358562146271895  0.6694165126166796  0.6672271219917068
  0.8356734803258796  0.6715279867128260  0.4969896822187010
  0.2536972164196843  0.7485896810018106  0.7254843460940270

  0.00000000E+00  0.00000000E+00  0.00000000E+00
  0.00000000E+00  0.00000000E+00  0.00000000E+00
  0.00000000E+00  0.00000000E+00  0.00000000E+00
  0.00000000E+00  0.00000000E+00  0.00000000E+00
  0.00000000E+00  0.00000000E+00  0.00000000E+00
  0.00000000E+00  0.00000000E+00  0.00000000E+00
  0.00000000E+00  0.00000000E+00  0.00000000E+00
  0.00000000E+00  0.00000000E+00  0.00000000E+00
  0.00000000E+00  0.00000000E+00  0.00000000E+00
  0.00000000E+00  0.00000000E+00  0.00000000E+00
  0.00000000E+00  0.00000000E+00  0.00000000E+00
  0.00000000E+00  0.00000000E+00  0.00000000E+00
  0.00000000E+00  0.00000000E+00  0.00000000E+00
  0.00000000E+00  0.00000000E+00  0.00000000E+00
  0.00000000E+00  0.00000000E+00  0.00000000E+00
  0.00000000E+00  0.00000000E+00  0.00000000E+00
  0.00000000E+00  0.00000000E+00  0.00000000E+00
  0.00000000E+00  0.00000000E+00  0.00000000E+00
  0.00000000E+00  0.00000000E+00  0.00000000E+00
  0.00000000E+00  0.00000000E+00  0.00000000E+00
  0.00000000E+00  0.00000000E+00  0.00000000E+00
  0.00000000E+00  0.00000000E+00  0.00000000E+00
  0.00000000E+00  0.00000000E+00  0.00000000E+00
  0.00000000E+00  0.00000000E+00  0.00000000E+00
