B2 Mo                                   
   1.0000000000000000     
     6.0880565643000004    0.0000000000000000    0.0000000000000000
    -3.0505411110999998    5.2686460937000001    0.0000000000000000
     0.0000000000000000    0.0000000000000000   23.7224636078000017
   Mo   V    B    H 
    10     4    40     1
Direct
  0.0005025632390923  0.5002114732559749  0.0702795687550009
  0.0036880599526493  0.5027979814891538  0.3317357692552769
  0.0006540244977604  0.4999193394336306  0.1993767521969626
 -0.0020421681462383  0.4966862437583244  0.4616713834729603
  0.5003959546256971  0.0001574294032192  0.0702694142951468
  0.4994044850083815 -0.0014434095465749  0.3317181537593449
  0.5013855171477279  0.0005829764562136  0.1994039085219458
  0.5053227618943937  0.0040744616384184  0.4617254794384001
  0.5004125908391163  0.5001207204890042  0.0695769532305264
  0.5023251396232589  0.4997869065967068  0.3311709957720962
  0.0004283699164962  0.0001907997132360  0.0707889202721722
  0.0024954519418253 -0.0005093363306823  0.3307624456096711
  0.5005814166691325  0.5007548804658452  0.1995462309670508
  0.5062703761607401  0.4958116924104577  0.4588706845662346
  0.1658136346186716  0.3264240683369912  0.1364004446114738
  0.1665423056483278  0.3251790502718163  0.4000368000137110
  0.1656355028935282  0.3314972164775505  0.0019775980412911
  0.1707624671235548  0.3345586399702319  0.5254519198573622
  0.1663982514596817  0.3270493052144262  0.2634603664931591
  0.1624881330467411  0.8384005843535448  0.1352488642837229
  0.1647020566907557  0.8374606274285006  0.3988547373314745
  0.1661167385303100  0.8342479513614084  0.0016964351082666
  0.1623444370819110  0.8392763008402504  0.5281725819097444
  0.1640851502228654  0.8377140303944511  0.2644881198086094
  0.6654884147415294  0.3353312039144776  0.1347021537423170
  0.6672870091167115  0.3349397555347406  0.3965226066056579
  0.6670773968293789  0.3333192284360000  0.0008753816485201
  0.6651370523181576  0.3366995475902921  0.5248786393467588
  0.6669332058952329  0.3349214071768007  0.2643977157488412
  0.6744018025676928  0.8350386873917491  0.1363701808421435
  0.6769456146506877  0.8356363649404557  0.4000741116357568
  0.6688726278940482  0.8347329040986148  0.0019693722865153
  0.6674059790379747  0.8310236329069645  0.5254312921533589
  0.6748519588498935  0.8354321468150158  0.2634164617666964
  0.3267343173683886  0.1654297080998377  0.1364766092495787
  0.3263017460738232  0.1638605039017914  0.3997255044409204
  0.3314942635548777  0.1656094935870996  0.0019788669786161
  0.3320304257715497  0.1710107909945519  0.5252558964644849
  0.3286357434220424  0.1659926302467841  0.2634136629174932
  0.3356417903341511  0.6652667324593740  0.1348175655419628
  0.3375663590959983  0.6644489570620922  0.3976754324179249
  0.3333192047294463  0.6670390087455672  0.0008383460446458
  0.3314235816584399  0.6704616398942106  0.5293558389190746
  0.3363529683909746  0.6654467143009057  0.2640459887577475
  0.8385863905567688  0.1622823837562770  0.1351706697422414
  0.8407725208170567  0.1613429887755547  0.3984167914765452
  0.8343921792572276  0.1659887743454418  0.0016620784477826
  0.8399622490616924  0.1619680772837705  0.5259052693927444
  0.8385301972342496  0.1632731295642588  0.2645157006575150
  0.8353976715723511  0.6740834282896007  0.1364583945746232
  0.8383265383246264  0.6760448417453497  0.3997383142927143
  0.8347557296064371  0.6688536156344094  0.0019715107796473
  0.8306740708919997  0.6694646071957955  0.5253442761463152
  0.8358867878791684  0.6732274297033788  0.2634050572488645
  0.2452634389207064  0.7566317316735875  0.5716060035134944

  0.00000000E+00  0.00000000E+00  0.00000000E+00
  0.00000000E+00  0.00000000E+00  0.00000000E+00
  0.00000000E+00  0.00000000E+00  0.00000000E+00
  0.00000000E+00  0.00000000E+00  0.00000000E+00
  0.00000000E+00  0.00000000E+00  0.00000000E+00
  0.00000000E+00  0.00000000E+00  0.00000000E+00
  0.00000000E+00  0.00000000E+00  0.00000000E+00
  0.00000000E+00  0.00000000E+00  0.00000000E+00
  0.00000000E+00  0.00000000E+00  0.00000000E+00
  0.00000000E+00  0.00000000E+00  0.00000000E+00
  0.00000000E+00  0.00000000E+00  0.00000000E+00
  0.00000000E+00  0.00000000E+00  0.00000000E+00
  0.00000000E+00  0.00000000E+00  0.00000000E+00
  0.00000000E+00  0.00000000E+00  0.00000000E+00
  0.00000000E+00  0.00000000E+00  0.00000000E+00
  0.00000000E+00  0.00000000E+00  0.00000000E+00
  0.00000000E+00  0.00000000E+00  0.00000000E+00
  0.00000000E+00  0.00000000E+00  0.00000000E+00
  0.00000000E+00  0.00000000E+00  0.00000000E+00
  0.00000000E+00  0.00000000E+00  0.00000000E+00
  0.00000000E+00  0.00000000E+00  0.00000000E+00
  0.00000000E+00  0.00000000E+00  0.00000000E+00
  0.00000000E+00  0.00000000E+00  0.00000000E+00
  0.00000000E+00  0.00000000E+00  0.00000000E+00
  0.00000000E+00  0.00000000E+00  0.00000000E+00
  0.00000000E+00  0.00000000E+00  0.00000000E+00
  0.00000000E+00  0.00000000E+00  0.00000000E+00
  0.00000000E+00  0.00000000E+00  0.00000000E+00
  0.00000000E+00  0.00000000E+00  0.00000000E+00
  0.00000000E+00  0.00000000E+00  0.00000000E+00
  0.00000000E+00  0.00000000E+00  0.00000000E+00
  0.00000000E+00  0.00000000E+00  0.00000000E+00
  0.00000000E+00  0.00000000E+00  0.00000000E+00
  0.00000000E+00  0.00000000E+00  0.00000000E+00
  0.00000000E+00  0.00000000E+00  0.00000000E+00
  0.00000000E+00  0.00000000E+00  0.00000000E+00
  0.00000000E+00  0.00000000E+00  0.00000000E+00
  0.00000000E+00  0.00000000E+00  0.00000000E+00
  0.00000000E+00  0.00000000E+00  0.00000000E+00
  0.00000000E+00  0.00000000E+00  0.00000000E+00
  0.00000000E+00  0.00000000E+00  0.00000000E+00
  0.00000000E+00  0.00000000E+00  0.00000000E+00
  0.00000000E+00  0.00000000E+00  0.00000000E+00
  0.00000000E+00  0.00000000E+00  0.00000000E+00
  0.00000000E+00  0.00000000E+00  0.00000000E+00
  0.00000000E+00  0.00000000E+00  0.00000000E+00
  0.00000000E+00  0.00000000E+00  0.00000000E+00
  0.00000000E+00  0.00000000E+00  0.00000000E+00
  0.00000000E+00  0.00000000E+00  0.00000000E+00
  0.00000000E+00  0.00000000E+00  0.00000000E+00
  0.00000000E+00  0.00000000E+00  0.00000000E+00
  0.00000000E+00  0.00000000E+00  0.00000000E+00
  0.00000000E+00  0.00000000E+00  0.00000000E+00
  0.00000000E+00  0.00000000E+00  0.00000000E+00
  0.00000000E+00  0.00000000E+00  0.00000000E+00
