B2 Mo                                   
   1.0000000000000000     
     6.0942104621285669    0.0023183131369670    0.0000000000000000
    -3.0450982158673154    5.2788998272706058    0.0000000000000000
     0.0000000000000000    0.0000000000000000    6.3143099304057868
   Mo   V    B 
     6     1    16
Direct
 -0.0000000000000000 -0.0000000000000000  0.5000000000409131
  0.9999999919906983  0.4999999864164053  0.0000000000000000
  0.9999999919906983  0.4999999864164053  0.5000000000409131
  0.4999999999424176 -0.0000000000000000  0.0000000000000000
  0.4999999999424176 -0.0000000000000000  0.5000000000409131
  0.4999999920976350  0.4999999864164053  0.0000000000000000
  0.4999999920976350  0.4999999864164053  0.5000000000409131
  0.1657206663782389  0.3290454320789889  0.2458270308503963
  0.1657206663782389  0.3290454320789889  0.7541729495915028
  0.1631897673032861  0.8368101999228788  0.2415573541615708
  0.1631897673032861  0.8368101999228788  0.7584426262803282
  0.6652137202597890  0.3347862880805039  0.2544618933400568
  0.6652137202597890  0.3347862880805039  0.7455380871018426
  0.6709545486731914  0.8342793284360434  0.2458270308503963
  0.6709545486731914  0.8342793284360434  0.7541729495915028
  0.3290453961999402  0.1657206443967674  0.2458270308503963
  0.3290453961999402  0.1657206443967674  0.7541729495915028
  0.3347862411632896  0.6652136395369764  0.2544618933400568
  0.3347862411632896  0.6652136395369764  0.7455380871018426
  0.8368100990900804  0.1631897729099318  0.2415573541615708
  0.8368100990900804  0.1631897729099318  0.7584426262803282
  0.8342792558872205  0.6709544955384915  0.2458270308503963
  0.8342792558872205  0.6709544955384915  0.7541729495915028

  0.00000000E+00  0.00000000E+00  0.00000000E+00
  0.00000000E+00  0.00000000E+00  0.00000000E+00
  0.00000000E+00  0.00000000E+00  0.00000000E+00
  0.00000000E+00  0.00000000E+00  0.00000000E+00
  0.00000000E+00  0.00000000E+00  0.00000000E+00
  0.00000000E+00  0.00000000E+00  0.00000000E+00
  0.00000000E+00  0.00000000E+00  0.00000000E+00
  0.00000000E+00  0.00000000E+00  0.00000000E+00
  0.00000000E+00  0.00000000E+00  0.00000000E+00
  0.00000000E+00  0.00000000E+00  0.00000000E+00
  0.00000000E+00  0.00000000E+00  0.00000000E+00
  0.00000000E+00  0.00000000E+00  0.00000000E+00
  0.00000000E+00  0.00000000E+00  0.00000000E+00
  0.00000000E+00  0.00000000E+00  0.00000000E+00
  0.00000000E+00  0.00000000E+00  0.00000000E+00
  0.00000000E+00  0.00000000E+00  0.00000000E+00
  0.00000000E+00  0.00000000E+00  0.00000000E+00
  0.00000000E+00  0.00000000E+00  0.00000000E+00
  0.00000000E+00  0.00000000E+00  0.00000000E+00
  0.00000000E+00  0.00000000E+00  0.00000000E+00
  0.00000000E+00  0.00000000E+00  0.00000000E+00
  0.00000000E+00  0.00000000E+00  0.00000000E+00
  0.00000000E+00  0.00000000E+00  0.00000000E+00
