B2 Mo
1.0
        6.0780000687         0.0000000000         0.0000000000
       -3.0390007352         5.2637020590         0.0000000000
        0.0000000000         0.0000000000         6.1100001335
   Mo   V    B
    6       1     16
Cartesian
     0.000000000         0.000000000         3.055000067
    -1.519500375         2.631850958         0.000000000
    -1.519500375         2.631850958         3.055000067
     3.039000034         0.000000000         0.000000000
     3.039000034         0.000000000         3.055000067
     1.519499660         2.631850958         0.000000000
	 1.519499660         2.631850958         3.055000067
    -0.000000238         1.754567385         1.527500033
    -0.000000238         1.754567385         4.582499981
    -1.519500732         4.386418343         1.527500033
    -1.519500732         4.386418343         4.582499981
     3.038999796         1.754567385         1.527500033
     3.038999796         1.754567385         4.582499981
     1.519499302         4.386418343         1.527500033
     1.519499302         4.386418343         4.582499981
     1.519499779         0.877283573         1.527500033
     1.519499779         0.877283573         4.582499981
    -0.000000477         3.509134293         1.527500033
    -0.000000477         3.509134293         4.582499981
     4.558499336         0.877283573         1.527500033
     4.558499336         0.877283573         4.582499981
     3.038999319         3.509134293         1.527500033
     3.038999319         3.509134293         4.582499981
