B2 Mo
1.0
        3.0390000343         0.0000000000         0.0000000000
       -1.5195000172         2.6318512318         0.0000000000
        0.0000000000         0.0000000000         3.0550000668
   Mo    B
    1    2
Cartesian
     0.000000000         0.000000000         0.000000000
     0.000000000         1.754567504         1.527500033
     1.519499779         0.877283692         1.527500033
