B2 Mo                                   
   1.0000000000000000     
     6.0780000686999998    0.0000000000000000    0.0000000000000000
    -3.0390007352000001    5.2637020589999999    0.0000000000000000
     0.0000000000000000    0.0000000000000000   22.3299999237000009
   Mo   V    B    H 
    12     2    40     2
Direct
  0.0006376549395770  0.0001494716954862  0.0634736478571149
  0.0020552630372146  0.0006326984511216  0.3442347249429859
  0.0008975106166780  0.5002264772707672  0.2027384763091471
  0.0025911797692300  0.5009698400973738  0.4850494950511037
  0.0007178512308649  0.5001967253484686  0.0637877820745160
  0.0022614555330018  0.5008968793936988  0.3442685995449083
  0.5009432450739177  0.0001607523429498  0.2027540585478490
  0.5027869238412067  0.0012218825410180  0.4851068420822993
  0.5006250042151713  0.0001741601429017  0.0637821180891244
  0.5020435488159750  0.0007134923175128  0.3442391254536503
  0.5009799387181522  0.5003611933409589  0.2027576324617006
  0.5025851003030389  0.5010129882443124  0.4799177802675993
  0.5006073237026912  0.5001216733218270  0.0639754820807881
  0.5021307465045152  0.5005610133301344  0.3432877824974821
  0.1688095345085947  0.3342296734296457  0.9908386330961714
  0.1734477161390581  0.3349940461695124  0.5526219576552930
  0.1673101572222599  0.3300933556823789  0.2726603984861929
  0.1664515881696333  0.3290060884947660  0.1334692560956412
  0.1654048339595524  0.3265317105401648  0.4167707679661933
  0.1671415793748571  0.8335104461200603  0.9897928091894433
  0.1635600884495658  0.8404480385753049  0.5565735587006493
  0.1649951275013775  0.8369727133488205  0.2713970191346170
  0.1637545180165955  0.8372582985680509  0.1347038835292945
  0.1667359577666261  0.8366800127180699  0.4178781512291418
  0.6662808478096922  0.3343796533876459  0.9908138930330709
  0.6736233497929695  0.3306216055853108  0.5586900993573138
  0.6667202620074463  0.3354241197716688  0.2744556107535681
  0.6658863274356983  0.3350657347273865  0.1309665597035579
  0.6662499735783237  0.3370505374687199  0.4131225243922513
  0.6664245710563930  0.8318436353025799  0.9908442143699068
  0.6691533296757343  0.8308073781195587  0.5525604433295931
  0.6720153162267224  0.8347144638715802  0.2726469912691374
  0.6719280815394550  0.8345019977972000  0.1334410225176683
  0.6767362172613054  0.8379821864511050  0.4167837259004542
  0.3346311962735727  0.1684352188459206  0.9908476852406264
  0.3367484315919688  0.1718207543277646  0.5526222458050787
  0.3312238883380917  0.1662788057461881  0.2726651109693852
  0.3296126763999854  0.1658964803817435  0.1334857182379757
  0.3280094637840323  0.1638094906974249  0.4167613712525459
  0.3347734858791442  0.6658887413082413  0.9907990027749711
  0.3321022282850314  0.6719242812624124  0.5585995957094402
  0.3365407126710836  0.6655475117571327  0.2744263660017779
  0.3356571886419248  0.6653169332029331  0.1309633681777723
  0.3385513892572473  0.6647685932024019  0.4131768867830351
  0.8338932641218834  0.1667448410971246  0.9897822503982144
  0.8422023291114292  0.1621259744748114  0.5566927521523641
  0.8380546509873593  0.1638956061280273  0.2713831023719605
  0.8377693548374184  0.1632076280238024  0.1346927156697649
  0.8381976992478998  0.1650868231992097  0.4178674376510483
  0.8322132802668214  0.6660170524063131  0.9908553146472492
  0.8322444380122447  0.6674516334949936  0.5525683072542421
  0.8357211402104172  0.6708366030675839  0.2726573956210918
  0.8350660051823245  0.6713319248418061  0.1334577125150530
  0.8395237124469572  0.6753886835222479  0.4167753734110137
  0.2441037239070394  0.7585863136288932  0.6032069821632345
  0.7613084709785498  0.2435464945428814  0.6033319987619770

  0.00000000E+00  0.00000000E+00  0.00000000E+00
  0.00000000E+00  0.00000000E+00  0.00000000E+00
  0.00000000E+00  0.00000000E+00  0.00000000E+00
  0.00000000E+00  0.00000000E+00  0.00000000E+00
  0.00000000E+00  0.00000000E+00  0.00000000E+00
  0.00000000E+00  0.00000000E+00  0.00000000E+00
  0.00000000E+00  0.00000000E+00  0.00000000E+00
  0.00000000E+00  0.00000000E+00  0.00000000E+00
  0.00000000E+00  0.00000000E+00  0.00000000E+00
  0.00000000E+00  0.00000000E+00  0.00000000E+00
  0.00000000E+00  0.00000000E+00  0.00000000E+00
  0.00000000E+00  0.00000000E+00  0.00000000E+00
  0.00000000E+00  0.00000000E+00  0.00000000E+00
  0.00000000E+00  0.00000000E+00  0.00000000E+00
  0.00000000E+00  0.00000000E+00  0.00000000E+00
  0.00000000E+00  0.00000000E+00  0.00000000E+00
  0.00000000E+00  0.00000000E+00  0.00000000E+00
  0.00000000E+00  0.00000000E+00  0.00000000E+00
  0.00000000E+00  0.00000000E+00  0.00000000E+00
  0.00000000E+00  0.00000000E+00  0.00000000E+00
  0.00000000E+00  0.00000000E+00  0.00000000E+00
  0.00000000E+00  0.00000000E+00  0.00000000E+00
  0.00000000E+00  0.00000000E+00  0.00000000E+00
  0.00000000E+00  0.00000000E+00  0.00000000E+00
  0.00000000E+00  0.00000000E+00  0.00000000E+00
  0.00000000E+00  0.00000000E+00  0.00000000E+00
  0.00000000E+00  0.00000000E+00  0.00000000E+00
  0.00000000E+00  0.00000000E+00  0.00000000E+00
  0.00000000E+00  0.00000000E+00  0.00000000E+00
  0.00000000E+00  0.00000000E+00  0.00000000E+00
  0.00000000E+00  0.00000000E+00  0.00000000E+00
  0.00000000E+00  0.00000000E+00  0.00000000E+00
  0.00000000E+00  0.00000000E+00  0.00000000E+00
  0.00000000E+00  0.00000000E+00  0.00000000E+00
  0.00000000E+00  0.00000000E+00  0.00000000E+00
  0.00000000E+00  0.00000000E+00  0.00000000E+00
  0.00000000E+00  0.00000000E+00  0.00000000E+00
  0.00000000E+00  0.00000000E+00  0.00000000E+00
  0.00000000E+00  0.00000000E+00  0.00000000E+00
  0.00000000E+00  0.00000000E+00  0.00000000E+00
  0.00000000E+00  0.00000000E+00  0.00000000E+00
  0.00000000E+00  0.00000000E+00  0.00000000E+00
  0.00000000E+00  0.00000000E+00  0.00000000E+00
  0.00000000E+00  0.00000000E+00  0.00000000E+00
  0.00000000E+00  0.00000000E+00  0.00000000E+00
  0.00000000E+00  0.00000000E+00  0.00000000E+00
  0.00000000E+00  0.00000000E+00  0.00000000E+00
  0.00000000E+00  0.00000000E+00  0.00000000E+00
  0.00000000E+00  0.00000000E+00  0.00000000E+00
  0.00000000E+00  0.00000000E+00  0.00000000E+00
  0.00000000E+00  0.00000000E+00  0.00000000E+00
  0.00000000E+00  0.00000000E+00  0.00000000E+00
  0.00000000E+00  0.00000000E+00  0.00000000E+00
  0.00000000E+00  0.00000000E+00  0.00000000E+00
  0.00000000E+00  0.00000000E+00  0.00000000E+00
  0.00000000E+00  0.00000000E+00  0.00000000E+00
