 2 Mo0.5b2                              
   1.0000000000000000     
     6.0780000686999998    0.0000000000000000    0.0000000000000000
    -3.0390007352000001    5.2637020589999999    0.0000000000000000
     0.0000000000000000    0.0000000000000000   22.2199993133999989
   Mo   V    B    H 
     8     6    40     4
Direct
  0.0000419474843616  0.0007417203464135  0.2059513338016707
  0.0010152963249222  0.0017702946290521  0.4834439480236973
  0.9995631996600672  0.0003270522517744  0.0691148627643900
  0.0008352020022131  0.0015050838780623  0.3457107282711325
  0.5000431092395169  0.5007564082280909  0.2059751164446287
  0.5012597422268478  0.5019686329709674  0.4833868049578109
  0.4995394232895382  0.5003603549532101  0.0691080163023839
  0.5008756811351186  0.5015404278529199  0.3456975126512113
  0.9995363972684550  0.5003352956607494  0.0699850933818940
  0.0006948948149356  0.5013990339935123  0.3440409488069709
  0.5001140729519475  0.0007823173518572  0.2065789576255176
  0.5011304479615615  0.0017707432056810  0.4778983629042439
  0.4994911125630980  0.0002853306544195  0.0687799510215590
  0.5007831716144947  0.0014677273581764  0.3449043796300239
  0.1651722832178129  0.3344210103939195  0.9966095185736935
  0.1636165994558141  0.3399294005283823  0.5535852270581363
  0.1622119192606842  0.3393774228441946  0.2746155351163355
  0.1612036676762144  0.3390049855369947  0.1382758312011973
  0.1627765195313904  0.3400026240539503  0.4166870529150312
  0.8336073883023827  0.6659878199346144  0.9966128658793610
  0.8391421790414332  0.6639408370551665  0.5535126938656770
  0.8387246720266394  0.6628587000567226  0.2746096361229440
  0.8382429528730606  0.6619620193183503  0.1382644478326066
  0.8392770644789926  0.6633839285546712  0.4166443818554990
  0.6653213979091523  0.8342981324424690  0.9968203184594141
  0.6725309473217892  0.8305161232034870  0.5563445412399680
  0.6642242472684740  0.8374007788983145  0.2753757465474707
  0.6630578228252868  0.8370993505133213  0.1365614798401261
  0.6643235274014769  0.8384716848580268  0.4142363403924297
  0.3334756055417363  0.1661357055399213  0.9968171784090638
  0.3300688476798001  0.1734907419943017  0.5562847210891716
  0.3366854887610048  0.1648563569664487  0.2753888045044502
  0.3363575903729111  0.1638428878680677  0.1365614257341017
  0.3376798191037029  0.1648974988722091  0.4142560072209763
  0.1669159643557148  0.8323510661597036  0.9978014465808076
  0.1778992603897900  0.8394358207783270  0.5523156202319469
  0.1676819307929797  0.8298436837637195  0.2747112486539627
  0.1672388298561694  0.8286430885257667  0.1379456583010476
  0.1662707098347886  0.8271613258864423  0.4170616024050371
  0.8318411202327255  0.1680299038645944  0.9977958118119714
  0.8246358289797852  0.1643585111142939  0.5523611626238446
  0.8332160256295701  0.1724842841220303  0.2746895883315852
  0.8321645417470288  0.1722735412374815  0.1379255331569721
  0.8357208159915555  0.1762760840593279  0.4170763498654783
  0.6672373475310586  0.3326595382850810  0.9977976416009892
  0.6637507097462494  0.3251407771891581  0.5522800845147749
  0.6718159133214126  0.3338885765661003  0.2746684009878990
  0.6714772935484468  0.3329130870832096  0.1379146761436102
  0.6756329377948853  0.3364965364060016  0.4170866286413647
  0.3315111837602217  0.6677097015885907  0.9978007225955613
  0.3387505759085654  0.6787034083934659  0.5524014913524693
  0.3291853697630238  0.6683677490366802  0.2747171476591491
  0.3278645447795504  0.6679864848480715  0.1379514632719094
  0.3263921338282532  0.6668889559519461  0.4170842059199191
  0.2716535516063937  0.7730850188117299  0.6000138561478887
  0.2407611978637151  0.2633413549707645  0.6010205067283583
  0.7314252971096681  0.2323080718200348  0.5999099196988995
  0.7621012863966604  0.7404634375253555  0.6010270199289690

  0.00000000E+00  0.00000000E+00  0.00000000E+00
  0.00000000E+00  0.00000000E+00  0.00000000E+00
  0.00000000E+00  0.00000000E+00  0.00000000E+00
  0.00000000E+00  0.00000000E+00  0.00000000E+00
  0.00000000E+00  0.00000000E+00  0.00000000E+00
  0.00000000E+00  0.00000000E+00  0.00000000E+00
  0.00000000E+00  0.00000000E+00  0.00000000E+00
  0.00000000E+00  0.00000000E+00  0.00000000E+00
  0.00000000E+00  0.00000000E+00  0.00000000E+00
  0.00000000E+00  0.00000000E+00  0.00000000E+00
  0.00000000E+00  0.00000000E+00  0.00000000E+00
  0.00000000E+00  0.00000000E+00  0.00000000E+00
  0.00000000E+00  0.00000000E+00  0.00000000E+00
  0.00000000E+00  0.00000000E+00  0.00000000E+00
  0.00000000E+00  0.00000000E+00  0.00000000E+00
  0.00000000E+00  0.00000000E+00  0.00000000E+00
  0.00000000E+00  0.00000000E+00  0.00000000E+00
  0.00000000E+00  0.00000000E+00  0.00000000E+00
  0.00000000E+00  0.00000000E+00  0.00000000E+00
  0.00000000E+00  0.00000000E+00  0.00000000E+00
  0.00000000E+00  0.00000000E+00  0.00000000E+00
  0.00000000E+00  0.00000000E+00  0.00000000E+00
  0.00000000E+00  0.00000000E+00  0.00000000E+00
  0.00000000E+00  0.00000000E+00  0.00000000E+00
  0.00000000E+00  0.00000000E+00  0.00000000E+00
  0.00000000E+00  0.00000000E+00  0.00000000E+00
  0.00000000E+00  0.00000000E+00  0.00000000E+00
  0.00000000E+00  0.00000000E+00  0.00000000E+00
  0.00000000E+00  0.00000000E+00  0.00000000E+00
  0.00000000E+00  0.00000000E+00  0.00000000E+00
  0.00000000E+00  0.00000000E+00  0.00000000E+00
  0.00000000E+00  0.00000000E+00  0.00000000E+00
  0.00000000E+00  0.00000000E+00  0.00000000E+00
  0.00000000E+00  0.00000000E+00  0.00000000E+00
  0.00000000E+00  0.00000000E+00  0.00000000E+00
  0.00000000E+00  0.00000000E+00  0.00000000E+00
  0.00000000E+00  0.00000000E+00  0.00000000E+00
  0.00000000E+00  0.00000000E+00  0.00000000E+00
  0.00000000E+00  0.00000000E+00  0.00000000E+00
  0.00000000E+00  0.00000000E+00  0.00000000E+00
  0.00000000E+00  0.00000000E+00  0.00000000E+00
  0.00000000E+00  0.00000000E+00  0.00000000E+00
  0.00000000E+00  0.00000000E+00  0.00000000E+00
  0.00000000E+00  0.00000000E+00  0.00000000E+00
  0.00000000E+00  0.00000000E+00  0.00000000E+00
  0.00000000E+00  0.00000000E+00  0.00000000E+00
  0.00000000E+00  0.00000000E+00  0.00000000E+00
  0.00000000E+00  0.00000000E+00  0.00000000E+00
  0.00000000E+00  0.00000000E+00  0.00000000E+00
  0.00000000E+00  0.00000000E+00  0.00000000E+00
  0.00000000E+00  0.00000000E+00  0.00000000E+00
  0.00000000E+00  0.00000000E+00  0.00000000E+00
  0.00000000E+00  0.00000000E+00  0.00000000E+00
  0.00000000E+00  0.00000000E+00  0.00000000E+00
  0.00000000E+00  0.00000000E+00  0.00000000E+00
  0.00000000E+00  0.00000000E+00  0.00000000E+00
  0.00000000E+00  0.00000000E+00  0.00000000E+00
  0.00000000E+00  0.00000000E+00  0.00000000E+00
