B2 Mo                                   
   1.0000000000000000     
     6.0425883636359368    0.0001369167973727    0.0000099477789383
    -3.0211766588293898    5.2330686889487383    0.0000057453986962
     0.0000119662602771    0.0000126167104066    6.1378570730644384
   Mo   V    B 
     3     4    16
Direct
  0.9996492083430424  0.9999748071954907  0.5112903396500054
  0.4996368061191105  0.4999798294320232  0.0109977489861541
  0.4996424485715660  0.4999696634385502  0.5111012994256279
  0.9996587244786798  0.4999810722455674  0.0111254432190580
  0.9996462922862510  0.4999848242833241  0.5110642564859793
  0.4996559611458192  0.9999875443417416  0.0111257581790842
  0.4996506858945786  0.9999715819279555  0.5110635841399491
  0.1603892144792064  0.3290341161184575  0.2520498137707570
  0.1603667569468472  0.3290292008791562  0.7703898401555300
  0.8388996779125587  0.6709190093351707  0.2520441896016984
  0.8389174029967345  0.6709263301050441  0.7703900336621452
  0.6705807982671076  0.8392313292067459  0.2520567346063772
  0.6705735472859879  0.8392457455852153  0.7703802341685382
  0.3287188225903590  0.1607261366722868  0.2520522368329127
  0.3287093921055770  0.1607120680007777  0.7703852758335513
  0.1660860335947632  0.8335471781424689  0.2522465301266881
  0.1661399281795425  0.8334786288227021  0.7700608265424811
  0.8332144276788029  0.1664126779284134  0.2522549944013870
  0.8331431620564345  0.1664783580344617  0.7700530890545830
  0.6687453729914197  0.3308883228882749  0.2614010589744832
  0.6687375055333775  0.3308955310856409  0.7605963582869801
  0.3305496738954067  0.6690688463551819  0.2614094869718054
  0.3305563914040259  0.6690604772319002  0.7605902664016330

  0.00000000E+00  0.00000000E+00  0.00000000E+00
  0.00000000E+00  0.00000000E+00  0.00000000E+00
  0.00000000E+00  0.00000000E+00  0.00000000E+00
  0.00000000E+00  0.00000000E+00  0.00000000E+00
  0.00000000E+00  0.00000000E+00  0.00000000E+00
  0.00000000E+00  0.00000000E+00  0.00000000E+00
  0.00000000E+00  0.00000000E+00  0.00000000E+00
  0.00000000E+00  0.00000000E+00  0.00000000E+00
  0.00000000E+00  0.00000000E+00  0.00000000E+00
  0.00000000E+00  0.00000000E+00  0.00000000E+00
  0.00000000E+00  0.00000000E+00  0.00000000E+00
  0.00000000E+00  0.00000000E+00  0.00000000E+00
  0.00000000E+00  0.00000000E+00  0.00000000E+00
  0.00000000E+00  0.00000000E+00  0.00000000E+00
  0.00000000E+00  0.00000000E+00  0.00000000E+00
  0.00000000E+00  0.00000000E+00  0.00000000E+00
  0.00000000E+00  0.00000000E+00  0.00000000E+00
  0.00000000E+00  0.00000000E+00  0.00000000E+00
  0.00000000E+00  0.00000000E+00  0.00000000E+00
  0.00000000E+00  0.00000000E+00  0.00000000E+00
  0.00000000E+00  0.00000000E+00  0.00000000E+00
  0.00000000E+00  0.00000000E+00  0.00000000E+00
  0.00000000E+00  0.00000000E+00  0.00000000E+00
