B2 Mo                                   
1.0
        6.0780000687         0.0000000000         0.0000000000
       -3.0390007352         5.2637020590         0.0000000000
        0.0000000000         0.0000000000        22.3299999237
   Mo    V    B    H
   12    2   40    1
Cartesian
     3.040872574         5.258821011         1.412873268
     3.041226387         5.247555256         7.681009293
     4.556263447         2.625059366         4.528214455
    -1.509590149         2.648502350        10.827041626
    -1.514620543         2.631006956         1.418013215
    -1.494294167         2.639794350         7.680895805
     0.006388426         5.253427029         4.528801918
     3.072666407         0.002999237        10.828301430
     0.004020214         5.262732029         1.417911768
     3.051982403         0.011533365         7.680131912
     1.524622440         2.631371737         4.527093887
     1.528459549         2.620854855        10.687498093
     1.525229335         2.632007599         1.422702432
     1.538315058         2.639519691         7.668886185
     0.011947036         1.757733583        22.119817734
     0.054678559         1.778193355        12.400574684
     0.015261412         1.733566761         6.093156338
     0.012510955         1.729274035         2.975658894
     0.011222422         1.713360429         9.292169571
    -1.515967488         4.385489941        22.097045898
    -1.558115005         4.418848038        12.414992332
    -1.543740273         4.400343418         6.059057713
    -1.547614217         4.403874397         3.006107092
    -1.529029250         4.397899151         9.328246117
     3.034032822         1.758727908        22.119749069
     3.106595993         1.734001637        12.484448433
     3.033824682         1.762506723         6.129904747
     3.030354023         1.760818839         2.921813965
     3.031174660         1.769803047         9.223664284
     1.524182320         4.377458572        22.119722366
     1.541307926         4.354345322        12.330726624
     1.547953606         4.386297703         6.080980301
     1.547977209         4.389263153         2.976502895
     1.572123289         4.411735535         9.326995850
     1.522761583         0.885480165        22.120050430
     1.539528370         0.921035826        12.401668549
     1.508861780         0.871872127         6.093873501
     1.500017166         0.870299280         2.976356983
     1.499761224         0.853946209         9.291862488
     0.012530565         3.503155470        22.119308472
    -0.024183750         3.541506529        12.482891083
     0.024791718         3.499760151         6.128408909
     0.018366098         3.499791145         2.921952486
     0.039132118         3.497448444         9.224294662
     4.562347412         0.876133204        22.097200394
     4.633362293         0.844391167        12.412508965
     4.597615719         0.854794383         6.058259964
     4.596167564         0.856693566         3.004924297
     4.594558716         0.861890912         9.327802658
     3.035434246         3.504994392        22.119815826
     3.027102947         3.495685577        12.333096504
     3.039327145         3.524218798         6.081868649
     3.035903931         3.530519009         2.976998806
     3.056298494         3.555049896         9.327316284
     0.867153227         1.471143603        13.439605713
     