B2 Mo                                   
1.0
        6.0425882339         0.0000000000         0.0000000000
       -3.0210584412         5.2331368390         0.0000000000
        0.0000654718         0.0000737958        23.4135704038
   Mo    V    B    H
    6    8   40       2
Cartesian
     3.019457817         5.233053207         1.633044124
     3.019450903         5.233059406         7.738224030
     1.508725524         2.616483927         4.646246433
     1.508744359         2.616484165        10.742740631
     1.508677959         2.616483927         1.626737356
     1.508776307         2.616487265         7.761146069
     4.530055046         2.616477251         4.674517632
     4.530015945         2.616480827        10.859086037
     4.530022621         2.616462231         1.619978428
     4.530051708         2.616477966         7.745033264
    -0.001775306         5.233038425         4.674520016
    -0.001810464         5.233062267        10.859062195
    -0.001791477         5.233035564         1.619970202
    -0.001782694         5.233050346         7.745031834
    -0.009660390         1.748008370         0.011573514
    -0.001819570         1.751975656        12.334858894
    -0.022752220         1.724837661         6.140878677
    -0.026219649         1.724758983         3.182038784
    -0.027860649         1.720016003         9.333477020
     3.027062893         3.484953165         0.011582956
     3.019243479         3.480997562        12.334822655
     3.040174484         3.508115768         6.140857697
     3.043657541         3.508167744         3.182018042
     3.045264959         3.512903214         9.333440781
     1.501706839         4.365649700         0.011555501
     1.502204776         4.356879711        12.334847450
     1.515229225         4.388583183         6.140855789
     1.513569951         4.391606331         3.182041168
     1.516905189         4.395384312         9.333477974
     1.515684724         0.867327511         0.011586793
     1.515153766         0.876066744        12.334844589
     1.502170563         0.844386041         6.140866280
     1.503855824         0.841296077         3.182027578
     1.500595450         0.837559402         9.333434105
    -1.505719781         4.356946945         0.037055071
    -1.553010106         4.384276867        12.241849899
    -1.517813444         4.363921642         6.139102936
    -1.512091398         4.360601425         3.177940369
    -1.505433083         4.356821060         9.330934525
     4.523097992         0.876027048         0.037073910
     4.570452690         0.848728299        12.241933823
     4.535229206         0.869054556         6.139093876
     4.529446125         0.872361541         3.177960873
     4.522963524         0.876178384         9.330983162
     3.027177811         1.739759803         0.040942956
     3.016453266         1.745975137        12.266869545
     3.039123535         1.732847452         6.193437576
     3.043308258         1.730439782         3.113900661
     3.041972399         1.731227160         9.265574455
    -0.009752874         3.493215322         0.040947080
     0.000982016         3.486974955        12.266817093
    -0.021715607         3.500115633         6.193454266
    -0.025816077         3.502489090         3.113915205
    -0.024540860         3.501747131         9.265558243
	-1.025641203         4.053814125        13.257228851
	 1.017252445         1.376745462        13.272543907
	 