B2 Mo                                   
   1.0000000000000000     
     6.0780000686999998    0.0000000000000000    0.0000000000000000
    -3.0390007352000001    5.2637020589999999    0.0000000000000000
     0.0000000000000000    0.0000000000000000   22.3299999237000009
   Mo   V    B 
    12     2    40
Direct
  0.0000000000000000  0.0000000000000000  0.0633804306122922
  0.0000000000000000  0.0000000000000000  0.3447349359036858
  0.0000000576782071  0.4999999943955800  0.2028051071661805
  0.0000000576782071  0.4999999943955800  0.4830766428086177
  0.0000000576782071  0.4999999943955800  0.0637364956931568
  0.0000000576782071  0.4999999943955800  0.3451992056419098
  0.4999999943484710  0.0000000000000000  0.2028051071661805
  0.4999999943484710  0.0000000000000000  0.4830766428086177
  0.4999999943484710  0.0000000000000000  0.0637364956931568
  0.4999999943484710  0.0000000000000000  0.3451992056419098
  0.5000000520266781  0.4999999943955800  0.2033225026591464
  0.5000000520266781  0.4999999943955800  0.4853814678402606
  0.5000000520266781  0.4999999943955800  0.0635903511888840
  0.5000000520266781  0.4999999943955800  0.3446238818369480
  0.1682911258825731  0.3339861435178314 -0.0092786271309724
  0.1631945403481360  0.3283588120845934  0.5549033460973876
  0.1658918650483593  0.3296527105953423  0.2730502651084994
  0.1661129186145041  0.3290662606217281  0.1334181389917475
  0.1662580852298824  0.3286845610106472  0.4169721375955420
  0.1667237492874103  0.8332760761004072 -0.0103756049193587
  0.1665253133073550  0.8334745120804625  0.5561870590976782
  0.1638162809619476  0.8361835444258698  0.2719093372452735
  0.1630468489041836  0.8369529764836336  0.1346906565058569
  0.1619107348640587  0.8380890905237586  0.4183421229591191
  0.6657556784223434  0.3342442537679557 -0.0093083489136080
  0.6671189056435866  0.3328810265467122  0.5538604313032298
  0.6654075530269252  0.3345923791633738  0.2747516774852135
  0.6649954718081603  0.3350044603821387  0.1310045820627470
  0.6649258765691221  0.3350740556211769  0.4128866998043348
  0.6660136818228704  0.8317088063548349 -0.0092786271309724
  0.6716410132561080  0.8368053918892722  0.5549033460973876
  0.6703471147453592  0.8341080671890488  0.2730502651084994
  0.6709335647189730  0.8338870136229040  0.1334181389917475
  0.6713152643300542  0.8337418470075256  0.4169721375955420
  0.3339862577026814  0.1682911824363250 -0.0092786271309724
  0.3283589262694435  0.1631945969018879  0.5549033460973876
  0.3296528247801923  0.1658919216021112  0.2730502651084994
  0.3290663748065781  0.1661129751682560  0.1334181389917475
  0.3286846751954973  0.1662581417836342  0.4169721375955420
  0.3342443306408140  0.6657555450428422 -0.0093083489136080
  0.3328811034195705  0.6671187722640853  0.5538604313032298
  0.3345924560362321  0.6654074196474240  0.2747516774852135
  0.3350045372549970  0.6649953384286591  0.1310045820627470
  0.3350741324940352  0.6649257431896208  0.4128866998043348
  0.8332760257103435  0.1667239126907527 -0.0103756049193587
  0.8334744616903988  0.1665254767106974  0.5561870590976782
  0.8361834940358062  0.1638164443652900  0.2719093372452735
  0.8369529260935700  0.1630470123075261  0.1346906565058569
  0.8380890401336949  0.1619108982674012  0.4183421229591191
  0.8317087186527795  0.6660136552929667 -0.0092786271309724
  0.8368053041872168  0.6716409867262044  0.5549033460973876
  0.8341079794869934  0.6703470882154556  0.2730502651084994
  0.8338869259208486  0.6709335381890694  0.1334181389917475
  0.8337417593054702  0.6713152378001506  0.4169721375955420

  0.00000000E+00  0.00000000E+00  0.00000000E+00
  0.00000000E+00  0.00000000E+00  0.00000000E+00
  0.00000000E+00  0.00000000E+00  0.00000000E+00
  0.00000000E+00  0.00000000E+00  0.00000000E+00
  0.00000000E+00  0.00000000E+00  0.00000000E+00
  0.00000000E+00  0.00000000E+00  0.00000000E+00
  0.00000000E+00  0.00000000E+00  0.00000000E+00
  0.00000000E+00  0.00000000E+00  0.00000000E+00
  0.00000000E+00  0.00000000E+00  0.00000000E+00
  0.00000000E+00  0.00000000E+00  0.00000000E+00
  0.00000000E+00  0.00000000E+00  0.00000000E+00
  0.00000000E+00  0.00000000E+00  0.00000000E+00
  0.00000000E+00  0.00000000E+00  0.00000000E+00
  0.00000000E+00  0.00000000E+00  0.00000000E+00
  0.00000000E+00  0.00000000E+00  0.00000000E+00
  0.00000000E+00  0.00000000E+00  0.00000000E+00
  0.00000000E+00  0.00000000E+00  0.00000000E+00
  0.00000000E+00  0.00000000E+00  0.00000000E+00
  0.00000000E+00  0.00000000E+00  0.00000000E+00
  0.00000000E+00  0.00000000E+00  0.00000000E+00
  0.00000000E+00  0.00000000E+00  0.00000000E+00
  0.00000000E+00  0.00000000E+00  0.00000000E+00
  0.00000000E+00  0.00000000E+00  0.00000000E+00
  0.00000000E+00  0.00000000E+00  0.00000000E+00
  0.00000000E+00  0.00000000E+00  0.00000000E+00
  0.00000000E+00  0.00000000E+00  0.00000000E+00
  0.00000000E+00  0.00000000E+00  0.00000000E+00
  0.00000000E+00  0.00000000E+00  0.00000000E+00
  0.00000000E+00  0.00000000E+00  0.00000000E+00
  0.00000000E+00  0.00000000E+00  0.00000000E+00
  0.00000000E+00  0.00000000E+00  0.00000000E+00
  0.00000000E+00  0.00000000E+00  0.00000000E+00
  0.00000000E+00  0.00000000E+00  0.00000000E+00
  0.00000000E+00  0.00000000E+00  0.00000000E+00
  0.00000000E+00  0.00000000E+00  0.00000000E+00
  0.00000000E+00  0.00000000E+00  0.00000000E+00
  0.00000000E+00  0.00000000E+00  0.00000000E+00
  0.00000000E+00  0.00000000E+00  0.00000000E+00
  0.00000000E+00  0.00000000E+00  0.00000000E+00
  0.00000000E+00  0.00000000E+00  0.00000000E+00
  0.00000000E+00  0.00000000E+00  0.00000000E+00
  0.00000000E+00  0.00000000E+00  0.00000000E+00
  0.00000000E+00  0.00000000E+00  0.00000000E+00
  0.00000000E+00  0.00000000E+00  0.00000000E+00
  0.00000000E+00  0.00000000E+00  0.00000000E+00
  0.00000000E+00  0.00000000E+00  0.00000000E+00
  0.00000000E+00  0.00000000E+00  0.00000000E+00
  0.00000000E+00  0.00000000E+00  0.00000000E+00
  0.00000000E+00  0.00000000E+00  0.00000000E+00
  0.00000000E+00  0.00000000E+00  0.00000000E+00
  0.00000000E+00  0.00000000E+00  0.00000000E+00
  0.00000000E+00  0.00000000E+00  0.00000000E+00
  0.00000000E+00  0.00000000E+00  0.00000000E+00
  0.00000000E+00  0.00000000E+00  0.00000000E+00
