MoB2                                    
   1.0000000000000000     
    10.5395298004000004    0.0000000000000000    0.0000000000000000
     0.0000000000000000    6.1412000655999996    0.0000000000000000
     0.0000000000000000    0.0000000000000000   24.1274995803999985
   Mo   V    B 
    15     6    48
Selective dynamics
Direct
  0.0000000000000000  0.0000000000000000  0.1261009243772406   F   F   F
 -0.0015642686757805  0.4999999946590279  0.3746843667708150   T   T   T
  0.5014569430769346 -0.0000000000000000  0.3736185554452666   T   T   T
  0.4998980614098240 -0.0000000000000000  0.2518386860434745   T   T   T
  0.5000000094691117  0.4999999946590279  0.1261009243772406   F   F   F
  0.2499999572941078  0.0000000000000000  0.0630504621886203   F   F   F
  0.2499999572941078  0.0000000000000000  0.1891513865658681   F   F   F
  0.2496257335460364 -0.0000000000000000  0.3156935918678835   T   T   T
  0.2499999572941078  0.4999999946590279  0.1891513865658681   F   F   F
  0.2474438464679189  0.4999999946590279  0.3147571256695638   T   T   T
  0.7499999667632267  0.0000000000000000  0.0630504621886203   F   F   F
  0.7508489809210952 -0.0000000000000000  0.3150365629365131   T   T   T
  0.7499999667632267  0.4999999946590279  0.0630504621886203   F   F   F
  0.7499999667632267  0.4999999946590279  0.1891513865658681   F   F   F
  0.7524697290644177  0.4999999946590279  0.3151895220974220   T   T   T
 -0.0014093740392467 -0.0000000000000000  0.3717821892323049   T   T   T
  0.5024379894627404  0.4999999946590279  0.3719908985485140   T   T   T
  0.0000000000000000  0.4999999946590279  0.1261009243772406   F   F   F
  0.5000000094691117  0.0000000000000000  0.1261009243772406   F   F   F
  0.0026912497757769 -0.0000000000000000  0.2527260554624463   T   T   T
  0.4984455488424712  0.4999999946590279  0.2533545242463289   T   T   T
  0.0833333190980383  0.2499999973295104  0.0630504621886203   F   F   F
  0.0833333190980383  0.2499999973295104  0.1891513865658681   F   F   F
  0.0801995742608557  0.2514797296678706  0.3152416508033443   T   T   T
  0.0833333190980383  0.7499999919885383  0.0630504621886203   F   F   F
  0.0833333190980383  0.7499999919885383  0.1891513865658681   F   F   F
  0.0801995742608557  0.7485202596501779  0.3152416508033443   T   T   T
  0.5833333285671500  0.2499999973295104  0.0630504621886203   F   F   F
  0.5833333285671500  0.2499999973295104  0.1891513865658681   F   F   F
  0.5847270723698325  0.2574747635725830  0.3163349879870868   T   T   T
  0.5833333285671500  0.7499999919885383  0.0630504621886203   F   F   F
  0.5833333285671500  0.7499999919885383  0.1891513865658681   F   F   F
  0.5847270723698325  0.7425252257454655  0.3163349879870868   T   T   T
  0.3308229275315262  0.2470205422558198  0.3813895122024162   T   T   T
  0.3333333712730422  0.2499999973295104  0.1261009243772406   F   F   F
  0.3332701932186362  0.2536828243250693  0.2529870328746034   T   T   T
  0.3308229275315262  0.7529794470622287  0.3813895122024162   T   T   T
  0.3333333712730422  0.7499999919885383  0.1261009243772406   F   F   F
  0.3332701932186362  0.7463171649929794  0.2529870328746034   T   T   T
  0.8328929469735580  0.2499184478235275  0.3802264867771301   T   T   T
  0.8333333807421539  0.2499999973295104  0.1261009243772406   F   F   F
  0.8356741197107670  0.2441003588492132  0.2512398853623616   T   T   T
  0.8328929469735580  0.7500815414945213  0.3802264867771301   T   T   T
  0.8333333807421539  0.7499999919885383  0.1261009243772406   F   F   F
  0.8356741197107670  0.7558996304688357  0.2512398853623616   T   T   T
  0.4166666903710734  0.2499999973295104  0.0630504621886203   F   F   F
  0.4166666903710734  0.2499999973295104  0.1891513865658681   F   F   F
  0.4172389419741533  0.2579723180602743  0.3172663351451822   T   T   T
  0.4166666903710734  0.7499999919885383  0.0630504621886203   F   F   F
  0.4166666903710734  0.7499999919885383  0.1891513865658681   F   F   F
  0.4172389419741533  0.7420276712577745  0.3172663351451822   T   T   T
  0.9166666998401922  0.2499999973295104  0.0630504621886203   F   F   F
  0.9166666998401922  0.2499999973295104  0.1891513865658681   F   F   F
  0.9175751723183104  0.2528920969239212  0.3143951318656623   T   T   T
  0.9166666998401922  0.7499999919885383  0.0630504621886203   F   F   F
  0.9166666998401922  0.7499999919885383  0.1891513865658681   F   F   F
  0.9175751723183104  0.7471078923941273  0.3143951318656623   T   T   T
  0.1670715480412358  0.2479884106546263  0.3803261355147899   T   T   T
  0.1666666381960766  0.2499999973295104  0.1261009243772406   F   F   F
  0.1595837222583397  0.2544987431890854  0.2523190495927314   T   T   T
  0.1670715480412358  0.7520115786634225  0.3803261355147899   T   T   T
  0.1666666381960766  0.7499999919885383  0.1261009243772406   F   F   F
  0.1595837222583397  0.7455012461289633  0.2523190495927314   T   T   T
  0.6691113249931744  0.2490214187114144  0.3815394169077300   T   T   T
  0.6666666476651883  0.2499999973295104  0.1261009243772406   F   F   F
  0.6685905525067380  0.2431702263279339  0.2511031577938142   T   T   T
  0.6691113249931744  0.7509785706066342  0.3815394169077300   T   T   T
  0.6666666476651883  0.7499999919885383  0.1261009243772406   F   F   F
  0.6685905525067380  0.7568297629901146  0.2511031577938142   T   T   T

  0.00000000E+00  0.00000000E+00  0.00000000E+00
  0.00000000E+00  0.00000000E+00  0.00000000E+00
  0.00000000E+00  0.00000000E+00  0.00000000E+00
  0.00000000E+00  0.00000000E+00  0.00000000E+00
  0.00000000E+00  0.00000000E+00  0.00000000E+00
  0.00000000E+00  0.00000000E+00  0.00000000E+00
  0.00000000E+00  0.00000000E+00  0.00000000E+00
  0.00000000E+00  0.00000000E+00  0.00000000E+00
  0.00000000E+00  0.00000000E+00  0.00000000E+00
  0.00000000E+00  0.00000000E+00  0.00000000E+00
  0.00000000E+00  0.00000000E+00  0.00000000E+00
  0.00000000E+00  0.00000000E+00  0.00000000E+00
  0.00000000E+00  0.00000000E+00  0.00000000E+00
  0.00000000E+00  0.00000000E+00  0.00000000E+00
  0.00000000E+00  0.00000000E+00  0.00000000E+00
  0.00000000E+00  0.00000000E+00  0.00000000E+00
  0.00000000E+00  0.00000000E+00  0.00000000E+00
  0.00000000E+00  0.00000000E+00  0.00000000E+00
  0.00000000E+00  0.00000000E+00  0.00000000E+00
  0.00000000E+00  0.00000000E+00  0.00000000E+00
  0.00000000E+00  0.00000000E+00  0.00000000E+00
  0.00000000E+00  0.00000000E+00  0.00000000E+00
  0.00000000E+00  0.00000000E+00  0.00000000E+00
  0.00000000E+00  0.00000000E+00  0.00000000E+00
  0.00000000E+00  0.00000000E+00  0.00000000E+00
  0.00000000E+00  0.00000000E+00  0.00000000E+00
  0.00000000E+00  0.00000000E+00  0.00000000E+00
  0.00000000E+00  0.00000000E+00  0.00000000E+00
  0.00000000E+00  0.00000000E+00  0.00000000E+00
  0.00000000E+00  0.00000000E+00  0.00000000E+00
  0.00000000E+00  0.00000000E+00  0.00000000E+00
  0.00000000E+00  0.00000000E+00  0.00000000E+00
  0.00000000E+00  0.00000000E+00  0.00000000E+00
  0.00000000E+00  0.00000000E+00  0.00000000E+00
  0.00000000E+00  0.00000000E+00  0.00000000E+00
  0.00000000E+00  0.00000000E+00  0.00000000E+00
  0.00000000E+00  0.00000000E+00  0.00000000E+00
  0.00000000E+00  0.00000000E+00  0.00000000E+00
  0.00000000E+00  0.00000000E+00  0.00000000E+00
  0.00000000E+00  0.00000000E+00  0.00000000E+00
  0.00000000E+00  0.00000000E+00  0.00000000E+00
  0.00000000E+00  0.00000000E+00  0.00000000E+00
  0.00000000E+00  0.00000000E+00  0.00000000E+00
  0.00000000E+00  0.00000000E+00  0.00000000E+00
  0.00000000E+00  0.00000000E+00  0.00000000E+00
  0.00000000E+00  0.00000000E+00  0.00000000E+00
  0.00000000E+00  0.00000000E+00  0.00000000E+00
  0.00000000E+00  0.00000000E+00  0.00000000E+00
  0.00000000E+00  0.00000000E+00  0.00000000E+00
  0.00000000E+00  0.00000000E+00  0.00000000E+00
  0.00000000E+00  0.00000000E+00  0.00000000E+00
  0.00000000E+00  0.00000000E+00  0.00000000E+00
  0.00000000E+00  0.00000000E+00  0.00000000E+00
  0.00000000E+00  0.00000000E+00  0.00000000E+00
  0.00000000E+00  0.00000000E+00  0.00000000E+00
  0.00000000E+00  0.00000000E+00  0.00000000E+00
  0.00000000E+00  0.00000000E+00  0.00000000E+00
  0.00000000E+00  0.00000000E+00  0.00000000E+00
  0.00000000E+00  0.00000000E+00  0.00000000E+00
  0.00000000E+00  0.00000000E+00  0.00000000E+00
  0.00000000E+00  0.00000000E+00  0.00000000E+00
  0.00000000E+00  0.00000000E+00  0.00000000E+00
  0.00000000E+00  0.00000000E+00  0.00000000E+00
  0.00000000E+00  0.00000000E+00  0.00000000E+00
  0.00000000E+00  0.00000000E+00  0.00000000E+00
  0.00000000E+00  0.00000000E+00  0.00000000E+00
  0.00000000E+00  0.00000000E+00  0.00000000E+00
  0.00000000E+00  0.00000000E+00  0.00000000E+00
  0.00000000E+00  0.00000000E+00  0.00000000E+00
