B2 Mo                                   
   1.0000000000000000     
     6.0238727674202019   -0.0014630410267120    0.0000000000000000
    -3.0132041089172201    5.2160949239510357    0.0000000000000000
     0.0000000000000000    0.0000000000000000    6.2220411553152521
   Mo   V    B 
     6     2    16
Direct
 -0.0000000000000000 -0.0000000000000000  0.5000000000409131
  0.9999999919906983  0.4999999864164053 -0.0000000000000000
  0.9999999919906983  0.4999999864164053  0.5000000000409131
  0.4999999999424176 -0.0000000000000000 -0.0000000000000000
  0.4999999999424176 -0.0000000000000000  0.5000000000409131
  0.4999999920976350  0.4999999864164053 -0.0000000000000000
 -0.0000000000000000 -0.0000000000000000 -0.0000000000000000
  0.4999999920976350  0.4999999864164053  0.5000000000409131
  0.1680167391161198  0.3319832692817564  0.2499999999386233
  0.1680167391161198  0.3319832692817564  0.7499999805032758
  0.1650489177442412  0.8349510494819253  0.2456345739949919
  0.1650489177442412  0.8349510494819253  0.7543654064469072
  0.6650489452747738  0.3349510630655200  0.2543654258822547
  0.6650489452747738  0.3349510630655200  0.7456345545596443
  0.6680167114704225  0.8319832556981617  0.2499999999386233
  0.6680167114704225  0.8319832556981617  0.7499999805032758
  0.3319832334027091  0.1680167171346490  0.2499999999386233
  0.3319832334027091  0.1680167171346490  0.7499999805032758
  0.3349510161483050  0.6650488645519604  0.2543654258822547
  0.3349510161483050  0.6650488645519604  0.7456345545596443
  0.8349509486491254  0.1650489233508853  0.2456345739949919
  0.8349509486491254  0.1650489233508853  0.7543654064469072
  0.8319831831493396  0.6680166583357241  0.2499999999386233
  0.8319831831493396  0.6680166583357241  0.7499999805032758

  0.00000000E+00  0.00000000E+00  0.00000000E+00
  0.00000000E+00  0.00000000E+00  0.00000000E+00
  0.00000000E+00  0.00000000E+00  0.00000000E+00
  0.00000000E+00  0.00000000E+00  0.00000000E+00
  0.00000000E+00  0.00000000E+00  0.00000000E+00
  0.00000000E+00  0.00000000E+00  0.00000000E+00
  0.00000000E+00  0.00000000E+00  0.00000000E+00
  0.00000000E+00  0.00000000E+00  0.00000000E+00
  0.00000000E+00  0.00000000E+00  0.00000000E+00
  0.00000000E+00  0.00000000E+00  0.00000000E+00
  0.00000000E+00  0.00000000E+00  0.00000000E+00
  0.00000000E+00  0.00000000E+00  0.00000000E+00
  0.00000000E+00  0.00000000E+00  0.00000000E+00
  0.00000000E+00  0.00000000E+00  0.00000000E+00
  0.00000000E+00  0.00000000E+00  0.00000000E+00
  0.00000000E+00  0.00000000E+00  0.00000000E+00
  0.00000000E+00  0.00000000E+00  0.00000000E+00
  0.00000000E+00  0.00000000E+00  0.00000000E+00
  0.00000000E+00  0.00000000E+00  0.00000000E+00
  0.00000000E+00  0.00000000E+00  0.00000000E+00
  0.00000000E+00  0.00000000E+00  0.00000000E+00
  0.00000000E+00  0.00000000E+00  0.00000000E+00
  0.00000000E+00  0.00000000E+00  0.00000000E+00
  0.00000000E+00  0.00000000E+00  0.00000000E+00
