B2 Mo                                   
1.0
        6.0880565643         0.0000000000         0.0000000000
       -3.0505411111         5.2686460937         0.0000000000
        0.0000000000         0.0000000000        23.7224636078
   Mo    V    B    H
   10    4   40      2
Cartesian
    -1.525270581         2.634323120         1.666640997
    -1.525270581         2.634323120         7.876452923
    -1.525270581         2.634323120         4.722142696
    -1.525270581         2.634323120        10.924908638
     3.044027805         0.000000000         1.666640997
     3.044027805         0.000000000         7.876452923
     3.044027805         0.000000000         4.722142696
     3.044027805         0.000000000        10.924908638
     1.518758178         2.634323120         1.649325371
     1.518758178         2.634323120         7.860605240
     0.000000000         0.000000000         1.679560423
     0.000000000         0.000000000         7.850640774
     1.518758178         2.634323120         4.740609169
     1.518758178         2.634323120        11.004344940
     0.012232006         1.718235135         3.235287905
     0.013478816         1.717983961         9.486404419
    -0.003606439         1.745207667         0.046772167
     0.001513481         1.732926726        12.479362488
     0.008866251         1.721746445         6.249247551
    -1.571791530         4.416107178         3.207010746
    -1.579598784         4.420608521         9.460577965
    -1.534114361         4.394385338         0.040458158
    -1.522552252         4.387719631        12.538507462
    -1.559708834         4.409141064         6.275629520
     3.025291920         1.765766382         3.196393967
     3.026027679         1.765342116         9.422137260
     3.042800426         1.755672216         0.020719744
     3.040992022         1.756714940        12.462759972
     3.031317949         1.762292027         6.268860817
     1.556672096         4.397104740         3.235287905
     1.557514429         4.396151543         9.486404419
     1.525393486         4.397296429         0.046772167
     1.538587093         4.399019241        12.479362488
     1.551946878         4.398258209         6.249247551
     1.480842948         0.871541381         3.235287905
     1.480000734         0.872494578         9.486404419
     1.512121439         0.871349752         0.046772167
     1.498928070         0.869626939        12.479362488
     1.485568047         0.870388031         6.249247551
     0.012223959         3.502879858         3.196393967
     0.011488199         3.503304005         9.422137260
    -0.005284309         3.512973785         0.020719744
    -0.003475904         3.511931419        12.462759972
     0.006197929         3.506354094         6.268860817
     4.609306335         0.852538884         3.207010746
     4.617113590         0.848037839         9.460577965
     4.571629524         0.874260664         0.040458158
     4.560067177         0.880926490        12.538507462
     4.597223759         0.859504879         6.275629520
     3.025282860         3.550410986         3.235287905
     3.024035931         3.550662279         9.486404419
     3.041121721         3.523438454         0.046772167
     3.036001921         3.535719156        12.479362488
     3.028648615         3.546899796         6.249247551
	 -0.822977424         3.985130072        13.462085724
	1.005327463         1.291826928        13.375230789
