B2 Mo                                   
   1.0000000000000000     
     6.0425882339000001    0.0000000000000000    0.0000000000000000
    -3.0210584412000001    5.2331368390000002    0.0000000000000000
     0.0000654718000000    0.0000737958000000   23.4135704038000014
   Mo   V    B    H 
     6     8    40     3
Direct
  0.0000967384380500  0.0002132905048840  0.0696852947416600
  0.0020516393235240  0.0009458268504693  0.3297574518097701
  0.5003412630068230  0.4999302044436321  0.1986933636739259
  0.5005130415204386  0.4987464968545766  0.4585173896894540
  0.4998175473741597  0.4999380789515044  0.0693149077148171
  0.4985520025702632  0.4973012602181348  0.3305096929140555
  0.9999990155722621  0.4998085853378409  0.1993570805610681
  0.0040393670702303  0.5013073369802062  0.4606555537282828
  0.0000067796765393  0.5001573534912089  0.0690792597786504
  0.0015714428689332  0.4991523312829148  0.3306405964063047
  0.5003244734594163  0.9995958823098304  0.1993512364804181
  0.5029331713850165  0.0021503331616930  0.4606530264761278
  0.4999384869262953  0.0000801530796199  0.0690812271857223
  0.5004302857506673  0.0001986819144670  0.3306376212504895
  0.1656407180471455  0.3342079365926097  0.0003640682598144
  0.1723087370583861  0.3352985524297606  0.5261705540875964
  0.1615389249648879  0.3293636690892625  0.2622056059327195
  0.1609426846857880  0.3297201974728766  0.1358005485329909
  0.1610110689255133  0.3267141400832816  0.3989309820392800
  0.8340498124405568  0.6661247609396892  0.0003360246669162
  0.8387634578228401  0.6707428246500041  0.5222431289833761
  0.8393348641534815  0.6696852609530901  0.2624929241689232
  0.8391709410688788  0.6702701504142390  0.1357706047234104
  0.8424377343475599  0.6737816857590870  0.3990708103431054
  0.6658577974779772  0.8343209218124057  0.0003404201543070
  0.6731604809198547  0.8368851634020263  0.5220732413580590
  0.6705778046103380  0.8385050328935121  0.2624932067673673
  0.6702795076656833  0.8390731696453256  0.1357647398044296
  0.6754243336174880  0.8408916786600137  0.3991148582841872
  0.3339463537933891  0.1659026919508964  0.0003566051569526
  0.3377250997766179  0.1702327821373038  0.5262429581149651
  0.3302570633487921  0.1607026186860123  0.2622136780936435
  0.3297295454952374  0.1608459655860101  0.1358111768980761
  0.3283553608222079  0.1595082030015585  0.3988925309341018
  0.1672476865538226  0.8327145180953540  0.0014745514029782
  0.1670610845898651  0.8365211877629073  0.5254802405462837
  0.1667483438958903  0.8330987037599764  0.2623780345113678
  0.1665865258272855  0.8333718117901090  0.1357165167128417
  0.1682834617262458  0.8322002172082213  0.3985636025769475
  0.8324587490162655  0.1675077269042175  0.0014768801381055
  0.8387913663591581  0.1650062879323118  0.5253597304145837
  0.8339880503006636  0.1658436679590014  0.2623468365508343
  0.8333971598574212  0.1665609169246072  0.1356766838017001
  0.8336843898973993  0.1667722717097716  0.3985684059246759
  0.6674957834763221  0.3325815178605467  0.0016032864076579
  0.6733084902421427  0.3305093022041129  0.5278336355182176
  0.6696601961359444  0.3308027781428272  0.2643057588830193
  0.6692974918947712  0.3306217148429218  0.1329334858117117
  0.6701992468971169  0.3320773259263682  0.3954752069419596
  0.3323289797486075  0.6677509373374056  0.0016092821816330
  0.3324470677215040  0.6711138961875153  0.5277543970999569
  0.3316745570685808  0.6687856216188501  0.2643456472554619
  0.3306641652578390  0.6692494695794144  0.1329538955211150
  0.3336168597464698  0.6686154788689269  0.3955108852519307
  0.2487813006791769  0.7573452918267970  0.5709173472987711
  0.2602257283330821  0.2580339157630721  0.5706295524553719
  0.7593999737380950  0.2456815467317494  0.5708527546672386

  0.00000000E+00  0.00000000E+00  0.00000000E+00
  0.00000000E+00  0.00000000E+00  0.00000000E+00
  0.00000000E+00  0.00000000E+00  0.00000000E+00
  0.00000000E+00  0.00000000E+00  0.00000000E+00
  0.00000000E+00  0.00000000E+00  0.00000000E+00
  0.00000000E+00  0.00000000E+00  0.00000000E+00
  0.00000000E+00  0.00000000E+00  0.00000000E+00
  0.00000000E+00  0.00000000E+00  0.00000000E+00
  0.00000000E+00  0.00000000E+00  0.00000000E+00
  0.00000000E+00  0.00000000E+00  0.00000000E+00
  0.00000000E+00  0.00000000E+00  0.00000000E+00
  0.00000000E+00  0.00000000E+00  0.00000000E+00
  0.00000000E+00  0.00000000E+00  0.00000000E+00
  0.00000000E+00  0.00000000E+00  0.00000000E+00
  0.00000000E+00  0.00000000E+00  0.00000000E+00
  0.00000000E+00  0.00000000E+00  0.00000000E+00
  0.00000000E+00  0.00000000E+00  0.00000000E+00
  0.00000000E+00  0.00000000E+00  0.00000000E+00
  0.00000000E+00  0.00000000E+00  0.00000000E+00
  0.00000000E+00  0.00000000E+00  0.00000000E+00
  0.00000000E+00  0.00000000E+00  0.00000000E+00
  0.00000000E+00  0.00000000E+00  0.00000000E+00
  0.00000000E+00  0.00000000E+00  0.00000000E+00
  0.00000000E+00  0.00000000E+00  0.00000000E+00
  0.00000000E+00  0.00000000E+00  0.00000000E+00
  0.00000000E+00  0.00000000E+00  0.00000000E+00
  0.00000000E+00  0.00000000E+00  0.00000000E+00
  0.00000000E+00  0.00000000E+00  0.00000000E+00
  0.00000000E+00  0.00000000E+00  0.00000000E+00
  0.00000000E+00  0.00000000E+00  0.00000000E+00
  0.00000000E+00  0.00000000E+00  0.00000000E+00
  0.00000000E+00  0.00000000E+00  0.00000000E+00
  0.00000000E+00  0.00000000E+00  0.00000000E+00
  0.00000000E+00  0.00000000E+00  0.00000000E+00
  0.00000000E+00  0.00000000E+00  0.00000000E+00
  0.00000000E+00  0.00000000E+00  0.00000000E+00
  0.00000000E+00  0.00000000E+00  0.00000000E+00
  0.00000000E+00  0.00000000E+00  0.00000000E+00
  0.00000000E+00  0.00000000E+00  0.00000000E+00
  0.00000000E+00  0.00000000E+00  0.00000000E+00
  0.00000000E+00  0.00000000E+00  0.00000000E+00
  0.00000000E+00  0.00000000E+00  0.00000000E+00
  0.00000000E+00  0.00000000E+00  0.00000000E+00
  0.00000000E+00  0.00000000E+00  0.00000000E+00
  0.00000000E+00  0.00000000E+00  0.00000000E+00
  0.00000000E+00  0.00000000E+00  0.00000000E+00
  0.00000000E+00  0.00000000E+00  0.00000000E+00
  0.00000000E+00  0.00000000E+00  0.00000000E+00
  0.00000000E+00  0.00000000E+00  0.00000000E+00
  0.00000000E+00  0.00000000E+00  0.00000000E+00
  0.00000000E+00  0.00000000E+00  0.00000000E+00
  0.00000000E+00  0.00000000E+00  0.00000000E+00
  0.00000000E+00  0.00000000E+00  0.00000000E+00
  0.00000000E+00  0.00000000E+00  0.00000000E+00
  0.00000000E+00  0.00000000E+00  0.00000000E+00
  0.00000000E+00  0.00000000E+00  0.00000000E+00
  0.00000000E+00  0.00000000E+00  0.00000000E+00
