B2 Mo                                   
1.0
        6.0880565643         0.0000000000         0.0000000000
       -3.0505411111         5.2686460937         0.0000000000
        0.0000000000         0.0000000000        23.7224636078
   Mo    V    B
   10     4     40
Cartesian
   -1.525271    2.634323    1.622614
   -1.525271    2.634323    7.863434
   -1.525271    2.634323    4.743024
   -1.525271    2.634323   10.983845
    3.044028    0.000000    1.622614
    3.044028    0.000000    7.863434
    3.044028    0.000000    4.743024
    3.044028    0.000000   10.983845
    1.518758    2.634323    1.622614
    1.518758    2.634323    7.863434
  0.000000    0.000000    1.622614
  0.000000    0.000000    7.863434
  1.518758    2.634323    4.743024
  1.518758    2.634323   10.983845
  0.010333    1.718802    3.236467
  0.010333    1.718802    9.477288
  0.010333    1.718802    0.008760
  0.010333    1.718802   12.490402
  0.010333    1.718802    6.249581
 -1.569486    4.414778    3.211073
 -1.569486    4.414778    9.451895
 -1.569486    4.414778    0.034154
 -1.569486    4.414778   12.515797
 -1.569486    4.414778    6.274975
  3.028994    1.763632    3.204359
  3.028994    1.763632    9.445181
  3.028994    1.763632    0.040867
  3.028994    1.763632   12.522510
  3.028994    1.763632    6.281688
  1.555230    4.398464    3.236467
  1.555230    4.398464    9.477288
  1.555230    4.398464    0.008760
  1.555230    4.398464   12.490402
  1.555230    4.398464    6.249581
  1.482285    0.870182    3.236467
  1.482285    0.870182    9.477288
  1.482285    0.870182    0.008760
  1.482285    0.870182   12.490402
  1.482285    0.870182    6.249581
  0.008522    3.505014    3.204359
  0.008522    3.505014    9.445181
  0.008522    3.505014    0.040867
  0.008522    3.505014   12.522510
  0.008522    3.505014    6.281688
  4.607001    0.853868    3.211073
  4.607001    0.853868    9.451895
  4.607001    0.853868    0.034154
  4.607001    0.853868   12.515797
  4.607001    0.853868    6.274975
  3.027182    3.549844    3.236467
  3.027182    3.549844    9.477288
  3.027182    3.549844    0.008760
  3.027182    3.549844   12.490402
  3.027182    3.549844    6.249581
