B2 Mo                                   
1.0
        6.0715007782         0.0000000000         0.0000000000
       -3.0336328746         5.2592958922         0.0000000000
        0.0000000000         0.0000000000        25.8633270264
   Mo    V     B
   12      4     34
Cartesian
    0.000000    0.000000    1.603526
    0.000000    0.000000    8.069358
   -1.516816    2.629648    4.836442
   -1.516816    2.629648   11.302275
   -1.516816    2.629648    1.603526
   -1.516816    2.629648    8.069358
    3.035750    0.000000    4.836442
    3.035750    0.000000   11.302275
    3.035750    0.000000    1.603526
    3.035750    0.000000    8.069358
    1.518934    2.629648    4.836442
    1.518934    2.629648   11.302275
  0.000000    0.000000    4.836442
  0.000000    0.000000   11.302275
  1.518934    2.629648    1.603526
  1.518934    2.629648    8.069358
  0.009267    1.748153    6.452900
  0.009267    1.748153   12.918732
  0.009267    1.748153    3.219984
  0.009267    1.748153    9.685816
 -1.525959    4.388434    6.427730
 -1.525959    4.388434   12.893562
 -1.525959    4.388434    3.245154
 -1.525959    4.388434    9.710986
  3.026609    1.758787    0.012239
  3.026609    1.758787   12.943902
  3.026609    1.758787    6.478070
  3.026609    1.758787    3.194814
  3.026609    1.758787    9.660646
  1.528201    4.377801    6.452900
  1.528201    4.377801   12.918732
  1.528201    4.377801    3.219984
  1.528201    4.377801    9.685816
  1.509667    0.881494    6.452900
  1.509667    0.881494   12.918732
  1.509667    0.881494    3.219984
  1.509667    0.881494    9.685816
  0.011259    3.500509    0.012239
  0.011259    3.500509   12.943902
  0.011259    3.500509    6.478070
  0.011259    3.500509    3.194814
  0.011259    3.500509    9.660646
  4.563825    0.870861    6.427730
  4.563825    0.870861   12.893562
  4.563825    0.870861    3.245154
  4.563825    0.870861    9.710986
  3.028600    3.511142    6.452900
  3.028600    3.511142   12.918732
  3.028600    3.511142    3.219984
  3.028600    3.511142    9.685816
