B2 Mo                                   
   1.0000000000000000     
     6.0780000686999998    0.0000000000000000    0.0000000000000000
    -3.0390007352000001    5.2637020589999999    0.0000000000000000
     0.0000000000000000    0.0000000000000000   22.3299999237000009
   Mo   V    B    H 
    12     2    40     3
Direct
 -0.0001554087943926  0.9990727404521267  0.0632724235357224
 -0.0011673569981234  0.9969324309990847  0.3439771253779727
 -0.0010130367402256  0.4987097147751554  0.2027861299656629
  0.0032122397955471  0.5031634415248387  0.4848652739037698
  0.0007227032028242  0.4998396650703958  0.0635026064284652
  0.0049016619326991  0.5015090893196340  0.3439720659207817
  0.5000751735897963  0.9980479414422163  0.2028124434176669
  0.5058239584372706  0.0005697962048407  0.4849216907612323
  0.5005694137837016 -0.0001842861659271  0.0634980654880009
  0.5032315164216642  0.0021911128203856  0.3439378364633020
  0.5007973049983588  0.4999089460677804  0.2027359591589061
  0.5004296142307871  0.4979109618568556  0.4786161505658206
  0.5009575241776482  0.5000297522753515  0.0637126057820333
  0.5038241153096340  0.5014569153851047  0.3434342094657846
  0.1689330982213920  0.3339348812758766  0.9905873904320377
  0.1779070999290391  0.3378218100727744  0.5553324972966458
  0.1671827809385232  0.3293436449885948  0.2728686411183780
  0.1663224794843989  0.3285280926823982  0.1332583481532157
  0.1645988686148256  0.3255048352542064  0.4161294033045145
  0.1671598141473121  0.8331570295340636  0.9895676895490733
  0.1633940378721703  0.8394943439158592  0.5559781723678270
  0.1640012991715454  0.8359787881286750  0.2713415812063768
  0.1636993658214292  0.8366496347202010  0.1346219090770328
  0.1661895312039604  0.8355145032064608  0.4177449995662075
  0.6662446837458926  0.3341237596694520  0.9905843947345840
  0.6758346030718597  0.3294262710002187  0.5590885769981533
  0.6665694301586290  0.3348416796485560  0.2745143121684623
  0.6658380539224568  0.3345210024775194  0.1308470149696529
  0.6668265090127632  0.3362278408459016  0.4130615204671780
  0.6665859748050919  0.8316311524794108  0.9905831957997994
  0.6672081192158816  0.8272401251045850  0.5522044980936576
  0.6713367395255854  0.8333104534142988  0.2723233496972537
  0.6716222993940727  0.8338738376823475  0.1332961512979995
  0.6777295897128525  0.8381430825450457  0.4176890123083217
  0.3346485458253117  0.1682238476292173  0.9905979249865612
  0.3407845972374384  0.1749787223279337  0.5553814935881010
  0.3310690130543349  0.1656385786349338  0.2729007371981820
  0.3294644169396347  0.1653397723974446  0.1332896023490943
  0.3278689260741241  0.1622330078946649  0.4161156783515140
  0.3348270516854426  0.6655307656347527  0.9905646497153384
  0.3324295147836128  0.6728167174259961  0.5590188476478507
  0.3365218751337443  0.6648856801242312  0.2744473275248384
  0.3354676095818322  0.6648916300772987  0.1308532226539143
  0.3386616612706742  0.6644465078629199  0.4130897954278329
  0.8338571355921004  0.1664480949913295  0.9895746232054858
  0.8425258535405844  0.1604177327434065  0.5558669702153289
  0.8376327130869647  0.1623941436442707  0.2713058460958111
  0.8375748347566074  0.1627549510124674  0.1345689271402692
  0.8378038293122946  0.1637423416308249  0.4177251311242334
  0.8323534969361197  0.6658800859088803  0.9905873326740375
  0.8300984860198770  0.6641116198488892  0.5523106242731428
  0.8348200644582431  0.6695323727590188  0.2723631251847209
  0.8348553286550408  0.6707292921407387  0.1333183428170615
  0.8405409451362101  0.6753896435336088  0.4177033841719306
  0.2419724730400017  0.7616651603101144  0.6029689243977437
  0.2824150463507613  0.2794883787501337  0.6018632245372210
  0.7651688527958542  0.2388790370397063  0.6029211133643532

  0.00000000E+00  0.00000000E+00  0.00000000E+00
  0.00000000E+00  0.00000000E+00  0.00000000E+00
  0.00000000E+00  0.00000000E+00  0.00000000E+00
  0.00000000E+00  0.00000000E+00  0.00000000E+00
  0.00000000E+00  0.00000000E+00  0.00000000E+00
  0.00000000E+00  0.00000000E+00  0.00000000E+00
  0.00000000E+00  0.00000000E+00  0.00000000E+00
  0.00000000E+00  0.00000000E+00  0.00000000E+00
  0.00000000E+00  0.00000000E+00  0.00000000E+00
  0.00000000E+00  0.00000000E+00  0.00000000E+00
  0.00000000E+00  0.00000000E+00  0.00000000E+00
  0.00000000E+00  0.00000000E+00  0.00000000E+00
  0.00000000E+00  0.00000000E+00  0.00000000E+00
  0.00000000E+00  0.00000000E+00  0.00000000E+00
  0.00000000E+00  0.00000000E+00  0.00000000E+00
  0.00000000E+00  0.00000000E+00  0.00000000E+00
  0.00000000E+00  0.00000000E+00  0.00000000E+00
  0.00000000E+00  0.00000000E+00  0.00000000E+00
  0.00000000E+00  0.00000000E+00  0.00000000E+00
  0.00000000E+00  0.00000000E+00  0.00000000E+00
  0.00000000E+00  0.00000000E+00  0.00000000E+00
  0.00000000E+00  0.00000000E+00  0.00000000E+00
  0.00000000E+00  0.00000000E+00  0.00000000E+00
  0.00000000E+00  0.00000000E+00  0.00000000E+00
  0.00000000E+00  0.00000000E+00  0.00000000E+00
  0.00000000E+00  0.00000000E+00  0.00000000E+00
  0.00000000E+00  0.00000000E+00  0.00000000E+00
  0.00000000E+00  0.00000000E+00  0.00000000E+00
  0.00000000E+00  0.00000000E+00  0.00000000E+00
  0.00000000E+00  0.00000000E+00  0.00000000E+00
  0.00000000E+00  0.00000000E+00  0.00000000E+00
  0.00000000E+00  0.00000000E+00  0.00000000E+00
  0.00000000E+00  0.00000000E+00  0.00000000E+00
  0.00000000E+00  0.00000000E+00  0.00000000E+00
  0.00000000E+00  0.00000000E+00  0.00000000E+00
  0.00000000E+00  0.00000000E+00  0.00000000E+00
  0.00000000E+00  0.00000000E+00  0.00000000E+00
  0.00000000E+00  0.00000000E+00  0.00000000E+00
  0.00000000E+00  0.00000000E+00  0.00000000E+00
  0.00000000E+00  0.00000000E+00  0.00000000E+00
  0.00000000E+00  0.00000000E+00  0.00000000E+00
  0.00000000E+00  0.00000000E+00  0.00000000E+00
  0.00000000E+00  0.00000000E+00  0.00000000E+00
  0.00000000E+00  0.00000000E+00  0.00000000E+00
  0.00000000E+00  0.00000000E+00  0.00000000E+00
  0.00000000E+00  0.00000000E+00  0.00000000E+00
  0.00000000E+00  0.00000000E+00  0.00000000E+00
  0.00000000E+00  0.00000000E+00  0.00000000E+00
  0.00000000E+00  0.00000000E+00  0.00000000E+00
  0.00000000E+00  0.00000000E+00  0.00000000E+00
  0.00000000E+00  0.00000000E+00  0.00000000E+00
  0.00000000E+00  0.00000000E+00  0.00000000E+00
  0.00000000E+00  0.00000000E+00  0.00000000E+00
  0.00000000E+00  0.00000000E+00  0.00000000E+00
  0.00000000E+00  0.00000000E+00  0.00000000E+00
  0.00000000E+00  0.00000000E+00  0.00000000E+00
  0.00000000E+00  0.00000000E+00  0.00000000E+00
