B2 Mo                                   
   1.0000000000000000     
     6.0880565643000004    0.0000000000000000    0.0000000000000000
    -3.0505411110999998    5.2686460937000001    0.0000000000000000
     0.0000000000000000    0.0000000000000000   23.7224636078000017
   Mo   V    B    H 
    10     4    40     1
Direct
 -0.0001930689371786  0.4997467112534905  0.0701535954853730
  0.0030275374842171  0.5007188740385350  0.3315749254813990
 -0.0007278894316109  0.4993963226779917  0.1991896519743261
  0.0000956147469418  0.5017253689336293  0.4608679402937673
  0.4998119697715884 -0.0003585784614418  0.0701504641283385
  0.5016587135707192  0.0018473952969181  0.3315607499861762
  0.4998789199532575 -0.0010549950574092  0.1992082521401046
  0.5032456090928350 -0.0012381125342830  0.4608879329861680
  0.4999514003979258  0.4997986062774227  0.0695451186060217
  0.4998653859566430  0.4987075157189620  0.3313060910256303
 -0.0005961587827308 -0.0006852738532783  0.0707087543127236
 -0.0007542191852923 -0.0016287993150607  0.3305753909537446
  0.5001286443881212  0.4998624153535633  0.1994950854837220
  0.5007121606981976  0.4992904275260847  0.4610739409688207
  0.1651243715651225  0.3257145853737251  0.1362586338921586
  0.1656814394619024  0.3251366542874474  0.3995067571483497
  0.1654165929789322  0.3311268241062098  0.0018728555652527
  0.1707907419870872  0.3338343744049787  0.5279492857747731
  0.1654990845706293  0.3264452370076964  0.2634385836893127
  0.1618972905586965  0.8378421559244272  0.1351916341545885
  0.1626680800776374  0.8380212581114755  0.3985818406382673
  0.1656892070332906  0.8339300319864728  0.0016697143340920
  0.1655489652749645  0.8347956302136743  0.5258304913669504
  0.1625550224918198  0.8365305606471994  0.2644329587543940
  0.6647959948928128  0.3347602558193653  0.1346801061484278
  0.6661068618394155  0.3351620254300849  0.3968664431834249
  0.6667402307288713  0.3330551995174530  0.0007916477731484
  0.6671103280697213  0.3345697835891801  0.5256276806480172
  0.6657354564036879  0.3342979122062509  0.2640911063161956
  0.6737686538932650  0.8344565241452065  0.1362912420998527
  0.6767218205794886  0.8356175912108212  0.4002298887564585
  0.6686162631859376  0.8343443825834642  0.0018460199454092
  0.6704825510396630  0.8324455007768683  0.5260676636053735
  0.6729891248342373  0.8338547344737752  0.2632360177998791
  0.3259327872777604  0.1648980939146250  0.1362765366150594
  0.3264525256675337  0.1645015858241249  0.3995294259392644
  0.3311795102457562  0.1653613708587021  0.0018724956572858
  0.3356564791414026  0.1690790151749792  0.5280864251337352
  0.3271585300625184  0.1648024274280328  0.2634571640572465
  0.3349908384182736  0.6646202422228301  0.1346736087863939
  0.3363867222249331  0.6648812114157632  0.3968685221263692
  0.3331146699482135  0.6666778172824327  0.0007934110250562
  0.3360640249393827  0.6653637769393497  0.5255936475913833
  0.3350184245516487  0.6649623417479781  0.2640827635919221
  0.8380127438716384  0.1617034847385390  0.1351617219241605
  0.8392345551627680  0.1614213461216217  0.3985643213349416
  0.8339810261505315  0.1656480595602993  0.0016662660695182
  0.8366449870843885  0.1638509313195857  0.5256491256804618
  0.8373237510517294  0.1618273847210634  0.2643899452665985
  0.8346777061223287  0.6735584145709391  0.1363118688868592
  0.8368819871367883  0.6755547049947448  0.4002319541784276
  0.8344052519359205  0.6685667864279069  0.0018466911489401
  0.8340274254028407  0.6687637129251309  0.5261603871894036
  0.8345701263051760  0.6722716628399339  0.2632661810412690
  0.2562317633172574  0.2548082529853993  0.5719865544374348

  0.00000000E+00  0.00000000E+00  0.00000000E+00
  0.00000000E+00  0.00000000E+00  0.00000000E+00
  0.00000000E+00  0.00000000E+00  0.00000000E+00
  0.00000000E+00  0.00000000E+00  0.00000000E+00
  0.00000000E+00  0.00000000E+00  0.00000000E+00
  0.00000000E+00  0.00000000E+00  0.00000000E+00
  0.00000000E+00  0.00000000E+00  0.00000000E+00
  0.00000000E+00  0.00000000E+00  0.00000000E+00
  0.00000000E+00  0.00000000E+00  0.00000000E+00
  0.00000000E+00  0.00000000E+00  0.00000000E+00
  0.00000000E+00  0.00000000E+00  0.00000000E+00
  0.00000000E+00  0.00000000E+00  0.00000000E+00
  0.00000000E+00  0.00000000E+00  0.00000000E+00
  0.00000000E+00  0.00000000E+00  0.00000000E+00
  0.00000000E+00  0.00000000E+00  0.00000000E+00
  0.00000000E+00  0.00000000E+00  0.00000000E+00
  0.00000000E+00  0.00000000E+00  0.00000000E+00
  0.00000000E+00  0.00000000E+00  0.00000000E+00
  0.00000000E+00  0.00000000E+00  0.00000000E+00
  0.00000000E+00  0.00000000E+00  0.00000000E+00
  0.00000000E+00  0.00000000E+00  0.00000000E+00
  0.00000000E+00  0.00000000E+00  0.00000000E+00
  0.00000000E+00  0.00000000E+00  0.00000000E+00
  0.00000000E+00  0.00000000E+00  0.00000000E+00
  0.00000000E+00  0.00000000E+00  0.00000000E+00
  0.00000000E+00  0.00000000E+00  0.00000000E+00
  0.00000000E+00  0.00000000E+00  0.00000000E+00
  0.00000000E+00  0.00000000E+00  0.00000000E+00
  0.00000000E+00  0.00000000E+00  0.00000000E+00
  0.00000000E+00  0.00000000E+00  0.00000000E+00
  0.00000000E+00  0.00000000E+00  0.00000000E+00
  0.00000000E+00  0.00000000E+00  0.00000000E+00
  0.00000000E+00  0.00000000E+00  0.00000000E+00
  0.00000000E+00  0.00000000E+00  0.00000000E+00
  0.00000000E+00  0.00000000E+00  0.00000000E+00
  0.00000000E+00  0.00000000E+00  0.00000000E+00
  0.00000000E+00  0.00000000E+00  0.00000000E+00
  0.00000000E+00  0.00000000E+00  0.00000000E+00
  0.00000000E+00  0.00000000E+00  0.00000000E+00
  0.00000000E+00  0.00000000E+00  0.00000000E+00
  0.00000000E+00  0.00000000E+00  0.00000000E+00
  0.00000000E+00  0.00000000E+00  0.00000000E+00
  0.00000000E+00  0.00000000E+00  0.00000000E+00
  0.00000000E+00  0.00000000E+00  0.00000000E+00
  0.00000000E+00  0.00000000E+00  0.00000000E+00
  0.00000000E+00  0.00000000E+00  0.00000000E+00
  0.00000000E+00  0.00000000E+00  0.00000000E+00
  0.00000000E+00  0.00000000E+00  0.00000000E+00
  0.00000000E+00  0.00000000E+00  0.00000000E+00
  0.00000000E+00  0.00000000E+00  0.00000000E+00
  0.00000000E+00  0.00000000E+00  0.00000000E+00
  0.00000000E+00  0.00000000E+00  0.00000000E+00
  0.00000000E+00  0.00000000E+00  0.00000000E+00
  0.00000000E+00  0.00000000E+00  0.00000000E+00
  0.00000000E+00  0.00000000E+00  0.00000000E+00
