MoB2                                    
   1.0000000000000000     
    10.5395298004000004    0.0000000000000000    0.0000000000000000
     0.0000000000000000    6.1412000655999996    0.0000000000000000
     0.0000000000000000    0.0000000000000000   24.1275005341000011
   Mo   V    B    H 
    18     6    48     1
Direct
 -0.0000837498624182 -0.0001175580785487  0.1243262722454341
  0.0004614488856813  0.4999502176327042  0.0030497840256545
  0.0007642803576664  0.4996283949103759  0.2537763164277011
  0.4999293469784572 -0.0000439332799661  0.0030736214262643
  0.5002569339112817  0.0008314127660545  0.2541838967180745
  0.5007008185559436  0.5000437271750341  0.1244238872945820
  0.2501961802652521  0.0000893301548541  0.0616192314041980
  0.2509758932766366  0.0001416125407846  0.1902452418868733
  0.2495654344160234  0.0008151870269230  0.3114419629325491
  0.2502170155969557  0.4997000851418013  0.0615366123062305
  0.2503955214223580  0.5000188832269008  0.1901280922400406
  0.2500443704331921  0.4989199864680737  0.3113752574763483
  0.7502710384925221 -0.0001460257797571  0.0618706079409142
  0.7499887457606251 -0.0009258840524262  0.1902709075478029
  0.7530603131488722 -0.0013353078378258  0.3115432703425018
  0.7501362325048611  0.4998490656515634  0.0618613073431721
  0.7503768735105760  0.5011393577030500  0.1901719228589265
  0.7525302256692351  0.4993353401842326  0.3114344306262248
  0.0003711578020043 -0.0002410020652514  0.0049221151801800
  0.4998232723583497  0.5001973954583339  0.0049913082858842
 -0.0000032091547343  0.4999872107061893  0.1245548197566512
  0.5004537515001646 -0.0001115077758033  0.1245248744792266
  0.0008650848826429  0.0003872789048051  0.2519444931683071
  0.5005842619855083  0.4999058488017870  0.2528652825780064
  0.0835697353535072  0.2497426990100150  0.0598653387032922
  0.0825146713056970  0.2499809012274731  0.1898016177282280
  0.0805203214593237  0.2414914082586506  0.3205488653472852
  0.0836264580256950  0.7501284434983245  0.0598850492741187
  0.0823068471723334  0.7498730547694930  0.1898998760606318
  0.0814863342786461  0.7584545391974337  0.3204157608100662
  0.5834561724545618  0.2500704691525259  0.0599411369446079
  0.5823747282257504  0.2499120416850847  0.1900091737544526
  0.5813582596240675  0.2579460354241435  0.3199724032714822
  0.5835556413820354  0.7498850733829163  0.0599341552713668
  0.5822817055638159  0.7500209576306406  0.1903195238630038
  0.5757856948632170  0.7428396924197928  0.3206260755481005
  0.3313075399343761  0.2495474160305564  0.9946841918701385
  0.3351763680823878  0.2452651039876344  0.1255211348068320
  0.3370525757820967  0.2543265530849791  0.2554863255269176
  0.3314006176987867  0.7502743254308608  0.9947242365401509
  0.3352324421923634  0.7546451131681821  0.1254468870873767
  0.3358102120287964  0.7457119012865342  0.2549902527927151
  0.8311426769469017  0.2501492859116525  0.9948101443138357
  0.8350020942684968  0.2546942013235993  0.1255797168827060
  0.8364511756791138  0.2463171256266047  0.2556802389651751
  0.8312605229964798  0.7498071200039109  0.9947579096021751
  0.8350709627686277  0.7451687912961814  0.1254711338120781
  0.8369931682298066  0.7538498612876077  0.2552022833192723
  0.4169440499562198  0.2501744843528987  0.0599660907385779
  0.4186282990745960  0.2502833133776746  0.1899089788469129
  0.4208757376711855  0.2587373569277206  0.3210498283648916
  0.4169352730645027  0.7498524399911137  0.0599425266647855
  0.4186752332718194  0.7500544194271102  0.1898868580226713
  0.4161059499352204  0.7420665516666383  0.3196255135468836
  0.9169435995537282  0.2498163413802680  0.0598723721623420
  0.9184581786719969  0.2501639724874175  0.1899255939209523
  0.9203000630181212  0.2414536109554953  0.3208484298145358
  0.9168993718055259  0.7499914069303915  0.0598716828144420
  0.9184754314882017  0.7497424361682832  0.1898387420460915
  0.9220237471663044  0.7586714252763335  0.3202518462947548
  0.1691633768802571  0.2502246194170832  0.9946793540576393
  0.1654623616896024  0.2546359828997663  0.1254383081265876
  0.1642657854173094  0.2456859688522791  0.2552359455812279
  0.1691259193052960  0.7496373684340175  0.9947402416977448
  0.1655769428301763  0.7452576581493974  0.1254475761226845
  0.1640828418915427  0.7542909942610256  0.2552180255258890
  0.6690822143450647  0.2496721476070160  0.9948410843377600
  0.6654915703409791  0.2452196225615385  0.1256111744691651
  0.6650434781805495  0.2539059525845465  0.2554062674322353
  0.6691325307254138  0.7501043037792623  0.9948142631751770
  0.6653025129993582  0.7548192000642546  0.1256449450029105
  0.6639033190756880  0.7453675768357869  0.2559533773240854
  0.6454796391411846  0.7523637318688519  0.3635623573158996

  0.00000000E+00  0.00000000E+00  0.00000000E+00
  0.00000000E+00  0.00000000E+00  0.00000000E+00
  0.00000000E+00  0.00000000E+00  0.00000000E+00
  0.00000000E+00  0.00000000E+00  0.00000000E+00
  0.00000000E+00  0.00000000E+00  0.00000000E+00
  0.00000000E+00  0.00000000E+00  0.00000000E+00
  0.00000000E+00  0.00000000E+00  0.00000000E+00
  0.00000000E+00  0.00000000E+00  0.00000000E+00
  0.00000000E+00  0.00000000E+00  0.00000000E+00
  0.00000000E+00  0.00000000E+00  0.00000000E+00
  0.00000000E+00  0.00000000E+00  0.00000000E+00
  0.00000000E+00  0.00000000E+00  0.00000000E+00
  0.00000000E+00  0.00000000E+00  0.00000000E+00
  0.00000000E+00  0.00000000E+00  0.00000000E+00
  0.00000000E+00  0.00000000E+00  0.00000000E+00
  0.00000000E+00  0.00000000E+00  0.00000000E+00
  0.00000000E+00  0.00000000E+00  0.00000000E+00
  0.00000000E+00  0.00000000E+00  0.00000000E+00
  0.00000000E+00  0.00000000E+00  0.00000000E+00
  0.00000000E+00  0.00000000E+00  0.00000000E+00
  0.00000000E+00  0.00000000E+00  0.00000000E+00
  0.00000000E+00  0.00000000E+00  0.00000000E+00
  0.00000000E+00  0.00000000E+00  0.00000000E+00
  0.00000000E+00  0.00000000E+00  0.00000000E+00
  0.00000000E+00  0.00000000E+00  0.00000000E+00
  0.00000000E+00  0.00000000E+00  0.00000000E+00
  0.00000000E+00  0.00000000E+00  0.00000000E+00
  0.00000000E+00  0.00000000E+00  0.00000000E+00
  0.00000000E+00  0.00000000E+00  0.00000000E+00
  0.00000000E+00  0.00000000E+00  0.00000000E+00
  0.00000000E+00  0.00000000E+00  0.00000000E+00
  0.00000000E+00  0.00000000E+00  0.00000000E+00
  0.00000000E+00  0.00000000E+00  0.00000000E+00
  0.00000000E+00  0.00000000E+00  0.00000000E+00
  0.00000000E+00  0.00000000E+00  0.00000000E+00
  0.00000000E+00  0.00000000E+00  0.00000000E+00
  0.00000000E+00  0.00000000E+00  0.00000000E+00
  0.00000000E+00  0.00000000E+00  0.00000000E+00
  0.00000000E+00  0.00000000E+00  0.00000000E+00
  0.00000000E+00  0.00000000E+00  0.00000000E+00
  0.00000000E+00  0.00000000E+00  0.00000000E+00
  0.00000000E+00  0.00000000E+00  0.00000000E+00
  0.00000000E+00  0.00000000E+00  0.00000000E+00
  0.00000000E+00  0.00000000E+00  0.00000000E+00
  0.00000000E+00  0.00000000E+00  0.00000000E+00
  0.00000000E+00  0.00000000E+00  0.00000000E+00
  0.00000000E+00  0.00000000E+00  0.00000000E+00
  0.00000000E+00  0.00000000E+00  0.00000000E+00
  0.00000000E+00  0.00000000E+00  0.00000000E+00
  0.00000000E+00  0.00000000E+00  0.00000000E+00
  0.00000000E+00  0.00000000E+00  0.00000000E+00
  0.00000000E+00  0.00000000E+00  0.00000000E+00
  0.00000000E+00  0.00000000E+00  0.00000000E+00
  0.00000000E+00  0.00000000E+00  0.00000000E+00
  0.00000000E+00  0.00000000E+00  0.00000000E+00
  0.00000000E+00  0.00000000E+00  0.00000000E+00
  0.00000000E+00  0.00000000E+00  0.00000000E+00
  0.00000000E+00  0.00000000E+00  0.00000000E+00
  0.00000000E+00  0.00000000E+00  0.00000000E+00
  0.00000000E+00  0.00000000E+00  0.00000000E+00
  0.00000000E+00  0.00000000E+00  0.00000000E+00
  0.00000000E+00  0.00000000E+00  0.00000000E+00
  0.00000000E+00  0.00000000E+00  0.00000000E+00
  0.00000000E+00  0.00000000E+00  0.00000000E+00
  0.00000000E+00  0.00000000E+00  0.00000000E+00
  0.00000000E+00  0.00000000E+00  0.00000000E+00
  0.00000000E+00  0.00000000E+00  0.00000000E+00
  0.00000000E+00  0.00000000E+00  0.00000000E+00
  0.00000000E+00  0.00000000E+00  0.00000000E+00
  0.00000000E+00  0.00000000E+00  0.00000000E+00
  0.00000000E+00  0.00000000E+00  0.00000000E+00
  0.00000000E+00  0.00000000E+00  0.00000000E+00
  0.00000000E+00  0.00000000E+00  0.00000000E+00
