MoB2                                    
1.0
       10.5395298004         0.0000000000         0.0000000000
        0.0000000000         6.1412000656         0.0000000000
        0.0000000000         0.0000000000        24.1275005341
   Mo    V    B    H
   18    6   48    3
Selective dynamics
Cartesian
     0.000000000         0.000000000         3.001503229  F F F
     0.000000000         3.070600033         0.072222501  F F F
     0.000000000         3.070600033         6.126098633  F F F
     5.269764900         0.000000000         0.072222501  F F F
     5.269764900         0.000000000         6.126098633  F F F
     5.269764900         3.070600033         3.001503229  F F F
     2.633469343         0.000000000         1.490200520  F F F
     2.636354446         0.000000000         4.588129520  F F F
     2.632089138         0.000000000         7.516527653  F F F
     2.636294603         3.070600033         1.490200520  F F F
     2.633409739         3.070600033         4.588129520  F F F
     2.637674809         3.070600033         7.516527653  F F F
     7.906059742         0.000000000         1.490200520  F F F
     7.903174877         0.000000000         4.588129520  F F F
     7.907439709         0.000000000         7.516527653  F F F
     7.903234482         3.070600033         1.490200520  F F F
     7.906119347         3.070600033         4.588129520  F F F
     7.901854515         3.070600033         7.516527653  F F F
     0.000000000         0.000000000         0.118871689  F F F
     5.269764900         3.070600033         0.118871689  F F F
     0.000000000         3.070600033         3.005472660  F F F
     5.269764900         0.000000000         3.005472660  F F F
     0.000000000         0.000000000         6.075929642  F F F
     5.269764900         3.070600033         6.075929642  F F F
     0.877720952         1.534894347         1.444207072  F F F
     0.863620937         1.537033796         4.584186077  F F F
     0.844022453         1.481077671         7.739164829  F F F
     0.877720952         4.606305599         1.444207072  F F F
     0.863620937         4.604166031         4.584186077  F F F
     0.844022453         4.660121918         7.739164829  F F F
     6.147485733         1.535705566         1.444207072  F F F
     6.133385658         1.533566236         4.584186077  F F F
     6.113787651         1.589522362         7.739164829  F F F
     6.147485733         4.605494499         1.444207072  F F F
     6.133385658         4.607633591         4.584186077  F F F
     6.113787651         4.551677704         7.739164829  F F F
     3.488631725         1.533367634        23.998737335 F F F
     3.528999090         1.506475091         3.027644873  F F F
     3.543172598         1.562430620         6.164231777  F F F
     3.488631725         4.607832432        23.998737335 F F F
     3.528999090         4.634725094         3.027644873  F F F
     3.543172598         4.578769207         6.164231777  F F F
     8.758397102         1.537232399        23.998737335 F F F
     8.798764229         1.564124942         3.027644873  F F F
     8.812937737         1.508169293         6.164231777  F F F
     8.758397102         4.603967667        23.998737335 F F F
     8.798764229         4.577075005         3.027644873  F F F
     8.812937737         4.633030415         6.164231777  F F F
     4.392044067         1.535705566         1.444207072  F F F
     4.406144142         1.533566236         4.584186077  F F F
     4.425742149         1.589522362         7.739164829  F F F
     4.392044067         4.605494499         1.444207072  F F F
     4.406144142         4.607633591         4.584186077  F F F
     4.425742149         4.551677704         7.739164829  F F F
     9.661808968         1.534894347         1.444207072  F F F
     9.675909042         1.537033796         4.584186077  F F F
     9.695508003         1.481077671         7.739164829  F F F
     9.661808968         4.606305599         1.444207072  F F F
     9.675909042         4.604166031         4.584186077  F F F
     9.695508003         4.660121918         7.739164829  F F F
     1.781133056         1.537232399        23.998737335 F F F
     1.740766048         1.564124942         3.027644873  F F F
     1.726592302         1.508169293         6.164231777  F F F
     1.781133056         4.603967667        23.998737335 F F F
     1.740766048         4.577075005         3.027644873  F F F
     1.726592302         4.633030415         6.164231777  F F F
     7.050898075         1.533367634        23.998737335 F F F
     7.010530949         1.506475091         3.027644873  F F F
     6.996357441         1.562430620         6.164231777  F F F
     7.050898075         4.607832432        23.998737335 F F F
     7.010530949         4.634725094         3.027644873  F F F
     6.996357441         4.578769207         6.164231777  F F F
     5.267400265         4.492923260         8.785155296  T T T
	 5.267400265         1.53076326           8.785155296  T T T
	-0.003479735         4.492923260         8.785155296  T T T
	
