MoB2                                    
   1.0000000000000000     
     8.6453199387000002    0.0000000000000000    0.0000000000000000
    -2.1414606584000002    5.6957327634999997    0.0000000000000000
    -0.2384319305000000   -9.8409511943000005   23.9952660313000017
   Mo   V    B    H 
    12     4    32     3
Selective dynamics
Direct
  0.0061712503021170  0.5079151292077171  0.3370482557038699   F   F   F
  0.9971459702300152  0.4975658321089682  0.4995448073951039   F   F   F
  0.5061713194924238  0.0079151860485140  0.3370482557038699   F   F   F
  0.4971458528449233  0.9975658590150758  0.4995448073951039   F   F   F
  0.2507858409407504  0.0022825154000259  0.4172066840576534   F   F   F
  0.2451314153318904  0.9920541414068680  0.5796275626974747   F   F   F
  0.2502470458924861  0.4997667626077416  0.4170534699197006   F   F   F
  0.2456309157992962  0.4921310481845396  0.5795416753396410   F   F   F
  0.7502470561091954  0.9997668314750854  0.4170534699197006   F   F   F
  0.7456309743658593  0.9921311170518834  0.5795416753396410   F   F   F
  0.7507858475092704  0.5022823748123244  0.4172066840576534   F   F   F
  0.7451313689289378  0.4920541145007604  0.5796275626974747   F   F   F
  0.0048442195975298  0.0097818614918381  0.3378458436937279   F   F   F
  0.9989012839049138  0.9976385255563400  0.4985830358535850   F   F   F
  0.5048441392219800  0.5097818046510412  0.3378458436937279   F   F   F
  0.4989013669408635  0.4976385823971370  0.4985830358535850   F   F   F
  0.4558479156203603  0.3320475147161446  0.4011295309435070   F   F   F
  0.4606328940087110  0.3642098571856209  0.5892324410388738   F   F   F
  0.4550810856007814  0.8249903317006684  0.4002251500972278   F   F   F
  0.4610424707430738  0.8622407245259680  0.5878423454693333   F   F   F
  0.9550811064371487  0.3249904721128019  0.4002251500972278   F   F   F
  0.9610425156591660  0.3622407394055287  0.5878423454693333   F   F   F
  0.9558478671736808  0.8320473743040111  0.4011295309435070   F   F   F
  0.9606329386161221  0.8642097585591486  0.5892324410388738   F   F   F
  0.2088231574162194  0.3326283962004624  0.4869503253999525   F   F   F
  0.2096349331528486  0.3303297579226339  0.3176349089882180   F   F   F
  0.2047979988249580  0.8362124668011717  0.4874823421729033   F   F   F
  0.2078047272079360  0.8302799844298860  0.3168406396529591   F   F   F
  0.7047979196481222  0.3362123561481525  0.4874823421729033   F   F   F
  0.7078047556201383  0.3302798318156306  0.3168406396529591   F   F   F
  0.7088232952721967  0.8326285068534816  0.4869503253999525   F   F   F
  0.7096349381902840  0.8303298894684801  0.3176349089882180   F   F   F
  0.0400515943538124  0.1629686313162182  0.4297710399438017   F   F   F
  0.0424899421377347  0.1692952971444441  0.5988115650919283   F   F   F
  0.0403060084410853  0.6671143020171542  0.4299684894738007   F   F   F
  0.0432293262227930  0.6730028983671872  0.6008491345415123   F   F   F
  0.5403060569224678  0.1671144424292876  0.4299684894738007   F   F   F
  0.5432294436432130  0.1730030387793207  0.6008491345415123   F   F   F
  0.5400516277970766  0.6629685744754141  0.4297710399438017   F   F   F
  0.5424898420425706  0.6692951985179789  0.5988115650919283   F   F   F
  0.2899571667310710  0.1440851202164737  0.3318817590358094   F   F   F
  0.2942827775136294  0.1716428290831615  0.5152532927066744   F   F   F
  0.2910326442249911  0.6307323212480682  0.3243541745212468   F   F   F
  0.2961277025209768  0.6690834324043209  0.5153211361720480   F   F   F
  0.7910323928351843  0.1307324198745405  0.3243541745212468   F   F   F
  0.7961275441064402  0.1690834053226453  0.5153211361720480   F   F   F
  0.7899569354666696  0.6440850215900085  0.3318817590358094   F   F   F
  0.7942827669466723  0.6716427304566892  0.5152532927066744   F   F   F
  0.6325484277383134  0.3029332274002730  0.6457420932425291   T   T   T
  0.6691775128227148  0.7667132559258164  0.6376280994844865   T   T   T
  0.3471351292846223  0.8692622284992649  0.6285969858637760   T   T   T

  0.00000000E+00  0.00000000E+00  0.00000000E+00
  0.00000000E+00  0.00000000E+00  0.00000000E+00
  0.00000000E+00  0.00000000E+00  0.00000000E+00
  0.00000000E+00  0.00000000E+00  0.00000000E+00
  0.00000000E+00  0.00000000E+00  0.00000000E+00
  0.00000000E+00  0.00000000E+00  0.00000000E+00
  0.00000000E+00  0.00000000E+00  0.00000000E+00
  0.00000000E+00  0.00000000E+00  0.00000000E+00
  0.00000000E+00  0.00000000E+00  0.00000000E+00
  0.00000000E+00  0.00000000E+00  0.00000000E+00
  0.00000000E+00  0.00000000E+00  0.00000000E+00
  0.00000000E+00  0.00000000E+00  0.00000000E+00
  0.00000000E+00  0.00000000E+00  0.00000000E+00
  0.00000000E+00  0.00000000E+00  0.00000000E+00
  0.00000000E+00  0.00000000E+00  0.00000000E+00
  0.00000000E+00  0.00000000E+00  0.00000000E+00
  0.00000000E+00  0.00000000E+00  0.00000000E+00
  0.00000000E+00  0.00000000E+00  0.00000000E+00
  0.00000000E+00  0.00000000E+00  0.00000000E+00
  0.00000000E+00  0.00000000E+00  0.00000000E+00
  0.00000000E+00  0.00000000E+00  0.00000000E+00
  0.00000000E+00  0.00000000E+00  0.00000000E+00
  0.00000000E+00  0.00000000E+00  0.00000000E+00
  0.00000000E+00  0.00000000E+00  0.00000000E+00
  0.00000000E+00  0.00000000E+00  0.00000000E+00
  0.00000000E+00  0.00000000E+00  0.00000000E+00
  0.00000000E+00  0.00000000E+00  0.00000000E+00
  0.00000000E+00  0.00000000E+00  0.00000000E+00
  0.00000000E+00  0.00000000E+00  0.00000000E+00
  0.00000000E+00  0.00000000E+00  0.00000000E+00
  0.00000000E+00  0.00000000E+00  0.00000000E+00
  0.00000000E+00  0.00000000E+00  0.00000000E+00
  0.00000000E+00  0.00000000E+00  0.00000000E+00
  0.00000000E+00  0.00000000E+00  0.00000000E+00
  0.00000000E+00  0.00000000E+00  0.00000000E+00
  0.00000000E+00  0.00000000E+00  0.00000000E+00
  0.00000000E+00  0.00000000E+00  0.00000000E+00
  0.00000000E+00  0.00000000E+00  0.00000000E+00
  0.00000000E+00  0.00000000E+00  0.00000000E+00
  0.00000000E+00  0.00000000E+00  0.00000000E+00
  0.00000000E+00  0.00000000E+00  0.00000000E+00
  0.00000000E+00  0.00000000E+00  0.00000000E+00
  0.00000000E+00  0.00000000E+00  0.00000000E+00
  0.00000000E+00  0.00000000E+00  0.00000000E+00
  0.00000000E+00  0.00000000E+00  0.00000000E+00
  0.00000000E+00  0.00000000E+00  0.00000000E+00
  0.00000000E+00  0.00000000E+00  0.00000000E+00
  0.00000000E+00  0.00000000E+00  0.00000000E+00
  0.00000000E+00  0.00000000E+00  0.00000000E+00
  0.00000000E+00  0.00000000E+00  0.00000000E+00
  0.00000000E+00  0.00000000E+00  0.00000000E+00
