MoB2                                    
   1.0000000000000000     
    10.5395298004000004    0.0000000000000000    0.0000000000000000
     0.0000000000000000    6.1412000655999996    0.0000000000000000
     0.0000000000000000    0.0000000000000000   24.1275005341000011
   Mo   V    B    H 
    18     6    48     2
Selective dynamics
Direct
  0.0000000000000000  0.0000000000000000  0.1244017474896708   F   F   F
  0.0000000000000000  0.5000000000325642  0.0029933685380286   F   F   F
  0.0000000000000000  0.5000000000325642  0.2539052325101707   F   F   F
  0.4999999999810214  0.0000000000000000  0.0029933685380286   F   F   F
  0.4999999999810214  0.0000000000000000  0.2539052325101707   F   F   F
  0.4999999999810214  0.5000000000325642  0.1244017474896708   F   F   F
  0.2498659231363476  0.0000000000000000  0.0617635680038191   F   F   F
  0.2501396642855909  0.0000000000000000  0.1901618244092660   F   F   F
  0.2497349680533318  0.0000000000000000  0.3115336229037382   F   F   F
  0.2501339863283008  0.5000000000325642  0.0617635680038191   F   F   F
  0.2498602678555955  0.5000000000325642  0.1901618244092660   F   F   F
  0.2502649415062024  0.5000000000325642  0.3115336229037382   F   F   F
  0.7501340089858601  0.0000000000000000  0.0617635680038191   F   F   F
  0.7498602904182761  0.0000000000000000  0.1901618244092660   F   F   F
  0.7502649414872309  0.0000000000000000  0.3115336229037382   F   F   F
  0.7498659457939070  0.5000000000325642  0.0617635680038191   F   F   F
  0.7501396643614910  0.5000000000325642  0.1901618244092660   F   F   F
  0.7497350132925362  0.5000000000325642  0.3115336229037382   F   F   F
  0.0000000000000000  0.0000000000000000  0.0049268132367075   F   F   F
  0.4999999999810214  0.5000000000325642  0.0049268132367075   F   F   F
  0.0000000000000000  0.5000000000325642  0.1245662664374336   F   F   F
  0.4999999999810214  0.0000000000000000  0.1245662664374336   F   F   F
  0.0000000000000000  0.0000000000000000  0.2518259043622351   F   F   F
  0.4999999999810214  0.5000000000325642  0.2518259043622351   F   F   F
  0.0832789477920244  0.2499339429760212  0.0598573014207915   F   F   F
  0.0819411257765239  0.2502823193482513  0.1899983825726608   F   F   F
  0.0800816041117827  0.2411707248060964  0.3207611504582530   F   F   F
  0.0832789477920244  0.7500660375489616  0.0598573014207915   F   F   F
  0.0819411257765239  0.7497176417994069  0.1899983825726608   F   F   F
  0.0800816041117827  0.7588291975869197  0.3207611504582530   F   F   F
  0.5832789364822233  0.2500660375163903  0.0598573014207915   F   F   F
  0.5819411087738686  0.2497176805214778  0.1899983825726608   F   F   F
  0.5800816323673175  0.2588292752264678  0.3207611504582530   F   F   F
  0.5832789364822233  0.7499339623859100  0.0598573014207915   F   F   F
  0.5819411087738686  0.7502822806261804  0.1899983825726608   F   F   F
  0.5800816323673175  0.7411707248386605  0.3207611504582530   F   F   F
  0.3310044936603873  0.2496853412396050  0.9946632184747841   F   F   F
  0.3348345853024739  0.2453063041275172  0.1254852266491895   F   F   F
  0.3361793803994502  0.2544178016202352  0.2554857171503500   F   F   F
  0.3310044936603873  0.7503146588255305  0.9946632184747841   F   F   F
  0.3348345853024739  0.7546937153149358  0.1254852266491895   F   F   F
  0.3361793803994502  0.7455821595274230  0.2554857171503500   F   F   F
  0.8310045388995988  0.2503146587929663  0.9946632184747841   F   F   F
  0.8348346079600333  0.2546936959050470  0.1254852266491895   F   F   F
  0.8361794030570096  0.2455821788721764  0.2554857171503500   F   F   F
  0.8310045388995988  0.7496853412721691  0.9946632184747841   F   F   F
  0.8348346079600333  0.7453062847827638  0.1254852266491895   F   F   F
  0.8361794030570096  0.7544177628981643  0.2554857171503500   F   F   F
  0.4167210634798266  0.2500660375163903  0.0598573014207915   F   F   F
  0.4180588911881813  0.2497176805214778  0.1899983825726608   F   F   F
  0.4199183675947324  0.2588292752264678  0.3207611504582530   F   F   F
  0.4167210634798266  0.7499339623859100  0.0598573014207915   F   F   F
  0.4180588911881813  0.7502822806261804  0.1899983825726608   F   F   F
  0.4199183675947324  0.7411707248386605  0.3207611504582530   F   F   F
  0.9167210635557268  0.2499339429760212  0.0598573014207915   F   F   F
  0.9180588911692027  0.2502823193482513  0.1899983825726608   F   F   F
  0.9199184580921269  0.2411707248060964  0.3207611504582530   F   F   F
  0.9167210635557268  0.7500660375489616  0.0598573014207915   F   F   F
  0.9180588911692027  0.7497176417994069  0.1899983825726608   F   F   F
  0.9199184580921269  0.7588291975869197  0.3207611504582530   F   F   F
  0.1689954950298045  0.2503146587929663  0.9946632184747841   F   F   F
  0.1651654372601996  0.2546936959050470  0.1254852266491895   F   F   F
  0.1638206195815783  0.2455821788721764  0.2554857171503500   F   F   F
  0.1689954950298045  0.7496853412721691  0.9946632184747841   F   F   F
  0.1651654372601996  0.7453062847827638  0.1254852266491895   F   F   F
  0.1638206195815783  0.7544177628981643  0.2554857171503500   F   F   F
  0.6689955063016555  0.2496853412396050  0.9946632184747841   F   F   F
  0.6651654373361069  0.2453063041275172  0.1254852266491895   F   F   F
  0.6638206422391306  0.2544178016202352  0.2554857171503500   F   F   F
  0.6689955063016555  0.7503146588255305  0.9946632184747841   F   F   F
  0.6651654373361069  0.7546937153149358  0.1254852266491895   F   F   F
  0.6638206422391306  0.7455821595274230  0.2554857171503500   F   F   F
  0.5002419647145574  0.7317198361323484  0.3641175401355639   T   T   T
  0.0003319184071340  0.7686285408628647  0.3641640277367701   T   T   T

  0.00000000E+00  0.00000000E+00  0.00000000E+00
  0.00000000E+00  0.00000000E+00  0.00000000E+00
  0.00000000E+00  0.00000000E+00  0.00000000E+00
  0.00000000E+00  0.00000000E+00  0.00000000E+00
  0.00000000E+00  0.00000000E+00  0.00000000E+00
  0.00000000E+00  0.00000000E+00  0.00000000E+00
  0.00000000E+00  0.00000000E+00  0.00000000E+00
  0.00000000E+00  0.00000000E+00  0.00000000E+00
  0.00000000E+00  0.00000000E+00  0.00000000E+00
  0.00000000E+00  0.00000000E+00  0.00000000E+00
  0.00000000E+00  0.00000000E+00  0.00000000E+00
  0.00000000E+00  0.00000000E+00  0.00000000E+00
  0.00000000E+00  0.00000000E+00  0.00000000E+00
  0.00000000E+00  0.00000000E+00  0.00000000E+00
  0.00000000E+00  0.00000000E+00  0.00000000E+00
  0.00000000E+00  0.00000000E+00  0.00000000E+00
  0.00000000E+00  0.00000000E+00  0.00000000E+00
  0.00000000E+00  0.00000000E+00  0.00000000E+00
  0.00000000E+00  0.00000000E+00  0.00000000E+00
  0.00000000E+00  0.00000000E+00  0.00000000E+00
  0.00000000E+00  0.00000000E+00  0.00000000E+00
  0.00000000E+00  0.00000000E+00  0.00000000E+00
  0.00000000E+00  0.00000000E+00  0.00000000E+00
  0.00000000E+00  0.00000000E+00  0.00000000E+00
  0.00000000E+00  0.00000000E+00  0.00000000E+00
  0.00000000E+00  0.00000000E+00  0.00000000E+00
  0.00000000E+00  0.00000000E+00  0.00000000E+00
  0.00000000E+00  0.00000000E+00  0.00000000E+00
  0.00000000E+00  0.00000000E+00  0.00000000E+00
  0.00000000E+00  0.00000000E+00  0.00000000E+00
  0.00000000E+00  0.00000000E+00  0.00000000E+00
  0.00000000E+00  0.00000000E+00  0.00000000E+00
  0.00000000E+00  0.00000000E+00  0.00000000E+00
  0.00000000E+00  0.00000000E+00  0.00000000E+00
  0.00000000E+00  0.00000000E+00  0.00000000E+00
  0.00000000E+00  0.00000000E+00  0.00000000E+00
  0.00000000E+00  0.00000000E+00  0.00000000E+00
  0.00000000E+00  0.00000000E+00  0.00000000E+00
  0.00000000E+00  0.00000000E+00  0.00000000E+00
  0.00000000E+00  0.00000000E+00  0.00000000E+00
  0.00000000E+00  0.00000000E+00  0.00000000E+00
  0.00000000E+00  0.00000000E+00  0.00000000E+00
  0.00000000E+00  0.00000000E+00  0.00000000E+00
  0.00000000E+00  0.00000000E+00  0.00000000E+00
  0.00000000E+00  0.00000000E+00  0.00000000E+00
  0.00000000E+00  0.00000000E+00  0.00000000E+00
  0.00000000E+00  0.00000000E+00  0.00000000E+00
  0.00000000E+00  0.00000000E+00  0.00000000E+00
  0.00000000E+00  0.00000000E+00  0.00000000E+00
  0.00000000E+00  0.00000000E+00  0.00000000E+00
  0.00000000E+00  0.00000000E+00  0.00000000E+00
  0.00000000E+00  0.00000000E+00  0.00000000E+00
  0.00000000E+00  0.00000000E+00  0.00000000E+00
  0.00000000E+00  0.00000000E+00  0.00000000E+00
  0.00000000E+00  0.00000000E+00  0.00000000E+00
  0.00000000E+00  0.00000000E+00  0.00000000E+00
  0.00000000E+00  0.00000000E+00  0.00000000E+00
  0.00000000E+00  0.00000000E+00  0.00000000E+00
  0.00000000E+00  0.00000000E+00  0.00000000E+00
  0.00000000E+00  0.00000000E+00  0.00000000E+00
  0.00000000E+00  0.00000000E+00  0.00000000E+00
  0.00000000E+00  0.00000000E+00  0.00000000E+00
  0.00000000E+00  0.00000000E+00  0.00000000E+00
  0.00000000E+00  0.00000000E+00  0.00000000E+00
  0.00000000E+00  0.00000000E+00  0.00000000E+00
  0.00000000E+00  0.00000000E+00  0.00000000E+00
  0.00000000E+00  0.00000000E+00  0.00000000E+00
  0.00000000E+00  0.00000000E+00  0.00000000E+00
  0.00000000E+00  0.00000000E+00  0.00000000E+00
  0.00000000E+00  0.00000000E+00  0.00000000E+00
  0.00000000E+00  0.00000000E+00  0.00000000E+00
  0.00000000E+00  0.00000000E+00  0.00000000E+00
  0.00000000E+00  0.00000000E+00  0.00000000E+00
  0.00000000E+00  0.00000000E+00  0.00000000E+00
