IALGO=38
#ALGO=fast
EDIFF=1E-06
ENCUT=500.00

NELM=200
NELMIN = 5   
EDIFFG = -0.02

#NEDOS=3001
#EMIN=-12
#EMAX=18
LWAVE=.FALSE.

ISMEAR=1
ISPIN=1
SIGMA=0.1
NSW=60
IBRION=2

LPLANE = .TRUE.
NPAR = 6
LSCALU = .FALSE.
NSIM = 4
LREAL=AUTO
#LSYM=.FALSE.
ISIF=2
PREC=high
#SYMPREC=1.0d-3
#MAGMOM = 6*0 6*0 3*0 3*3

LORBIT=11
#LDAU = .TRUE. Switches on the L(S)DA+U.
#LDAUTYPE = 2
#LDAUL = -1 -1 2 -1
#LDAUU = 0 0 4.0 0
#LDAUJ = 0 0 0.89 0
LMAXMIX = 4

