VB2                                     
   1.0000000000000000     
     5.9959998131000001    0.0000000000000000    0.0000000000000000
    -2.9979999065000000    5.1926881592000003    0.0000000000000000
     0.0000000000000000    0.0000000000000000   24.4559993744000010
   V    B    H 
    12    32     5
Direct
 -0.0000636900543359 -0.0003179411240423  0.1273082689133156
  0.0000636818536710  0.5003179246393230  0.1273082689133156
  0.5001680211171309  0.5000786254625481  0.1274153645049657
  0.4998319706655276 -0.0000786419472674  0.1274153645049657
 -0.0008050766273022 -0.0008850106234369  0.2500194643756807
  0.0008050684266371  0.5008849941387176  0.2500194643756807
  0.5003175065295874  0.5004240874934236  0.2500602876890508
  0.4996824852530711 -0.0004241039781430  0.2500602876890508
  0.0057749732394069  0.0038069456645538  0.3727976081127771
  0.9942250185599281  0.4961930378507268  0.3727976081127771
  0.5014304935061540  0.5015790436915465  0.3740151376111749
  0.4985694982765045 -0.0015790601762659  0.3740151376111749
  0.6668997273188582  0.3335743515676023  0.0643083536541524
  0.3335362795791939  0.6666566070346602  0.0643245443309482
  0.1667384260682102  0.3335437468973226  0.0643174474607772
  0.6664636528719524  0.8333432976775017  0.0643245443309482
  0.1666633956960704  0.8335157252648765  0.0643538735139152
  0.8333365766149887  0.6664841794472854  0.0643538735139152
  0.3331002644638003  0.1664256319476783  0.0643083536541524
  0.8332615458678813  0.1664562366179580  0.0643174474607772
  0.6664577112077666  0.3334890182514137  0.1878591072184466
  0.3333254698131030  0.6665132734667226  0.1879085879096662
  0.1666950859015303  0.3334793386381428  0.1879196182256555
  0.6666744626380433  0.8334866312454393  0.1879085879096662
  0.1667613091041710  0.8337236383151057  0.1878315669900990
  0.8332386632068881  0.6662762663970563  0.1878315669900990
  0.3335422805748920  0.1665109652638669  0.1878591072184466
  0.8333048860345612  0.1665206448771378  0.1879196182256555
  0.6670623895630861  0.3341452034829083  0.3122094855722849
  0.3332960864714627  0.6662977295133397  0.3120458699487437
  0.1664536599862484  0.3340223984392239  0.3119533807871353
  0.6667038459796838  0.8337021751988223  0.3120458699487437
  0.1661221586501532  0.8331820709475659  0.3118569888974821
  0.8338778136609060  0.6668178337645960  0.3118569888974821
  0.3329376022195723  0.1658547800323724  0.3122094855722849
  0.8335463119498430  0.1659775850760569  0.3119533807871353
  0.1654619225199813  0.3294933018771317  0.4374636611940964
  0.6689128981916372  0.8347457890375568  0.4405498130384524
  0.1671798018927379  0.8323257930007838  0.4376481473646309
  0.8328201704183212  0.6676741117113781  0.4376481473646309
  0.3331813543173213  0.1686492006697679  0.4381354292793984
  0.8345380494161103  0.1705066816381489  0.4374636611940964
  0.6668186374653373  0.3313507828455127  0.4381354292793984
  0.3310870342595091  0.6652541156746051  0.4405498130384524
  0.2494436877126587  0.2496359027931669  0.4806811271474018
  0.7618824932738832  0.7469287304528526  0.4807451259904365
  0.2381174819406666  0.7530712200929893  0.4807451259904365
  0.7505562742167670  0.2503640807221137  0.4806811271474018
  0.4999999776839914  0.7499999752729209  0.4807705953448017

  0.00000000E+00  0.00000000E+00  0.00000000E+00
  0.00000000E+00  0.00000000E+00  0.00000000E+00
  0.00000000E+00  0.00000000E+00  0.00000000E+00
  0.00000000E+00  0.00000000E+00  0.00000000E+00
  0.00000000E+00  0.00000000E+00  0.00000000E+00
  0.00000000E+00  0.00000000E+00  0.00000000E+00
  0.00000000E+00  0.00000000E+00  0.00000000E+00
  0.00000000E+00  0.00000000E+00  0.00000000E+00
  0.00000000E+00  0.00000000E+00  0.00000000E+00
  0.00000000E+00  0.00000000E+00  0.00000000E+00
  0.00000000E+00  0.00000000E+00  0.00000000E+00
  0.00000000E+00  0.00000000E+00  0.00000000E+00
  0.00000000E+00  0.00000000E+00  0.00000000E+00
  0.00000000E+00  0.00000000E+00  0.00000000E+00
  0.00000000E+00  0.00000000E+00  0.00000000E+00
  0.00000000E+00  0.00000000E+00  0.00000000E+00
  0.00000000E+00  0.00000000E+00  0.00000000E+00
  0.00000000E+00  0.00000000E+00  0.00000000E+00
  0.00000000E+00  0.00000000E+00  0.00000000E+00
  0.00000000E+00  0.00000000E+00  0.00000000E+00
  0.00000000E+00  0.00000000E+00  0.00000000E+00
  0.00000000E+00  0.00000000E+00  0.00000000E+00
  0.00000000E+00  0.00000000E+00  0.00000000E+00
  0.00000000E+00  0.00000000E+00  0.00000000E+00
  0.00000000E+00  0.00000000E+00  0.00000000E+00
  0.00000000E+00  0.00000000E+00  0.00000000E+00
  0.00000000E+00  0.00000000E+00  0.00000000E+00
  0.00000000E+00  0.00000000E+00  0.00000000E+00
  0.00000000E+00  0.00000000E+00  0.00000000E+00
  0.00000000E+00  0.00000000E+00  0.00000000E+00
  0.00000000E+00  0.00000000E+00  0.00000000E+00
  0.00000000E+00  0.00000000E+00  0.00000000E+00
  0.00000000E+00  0.00000000E+00  0.00000000E+00
  0.00000000E+00  0.00000000E+00  0.00000000E+00
  0.00000000E+00  0.00000000E+00  0.00000000E+00
  0.00000000E+00  0.00000000E+00  0.00000000E+00
  0.00000000E+00  0.00000000E+00  0.00000000E+00
  0.00000000E+00  0.00000000E+00  0.00000000E+00
  0.00000000E+00  0.00000000E+00  0.00000000E+00
  0.00000000E+00  0.00000000E+00  0.00000000E+00
  0.00000000E+00  0.00000000E+00  0.00000000E+00
  0.00000000E+00  0.00000000E+00  0.00000000E+00
  0.00000000E+00  0.00000000E+00  0.00000000E+00
  0.00000000E+00  0.00000000E+00  0.00000000E+00
  0.00000000E+00  0.00000000E+00  0.00000000E+00
  0.00000000E+00  0.00000000E+00  0.00000000E+00
  0.00000000E+00  0.00000000E+00  0.00000000E+00
  0.00000000E+00  0.00000000E+00  0.00000000E+00
  0.00000000E+00  0.00000000E+00  0.00000000E+00
