B2 Mo                                   
   1.0000000000000000     
     6.0880565643000004    0.0000000000000000    0.0000000000000000
    -3.0505411110999998    5.2686460937000001    0.0000000000000000
     0.0000000000000000    0.0000000000000000   23.7224636078000017
   Mo   V    B    H 
    10     4    40     4
Direct
  0.0001818324201720  0.5001833331909672  0.0696377135881756
  0.0015421795640210  0.5009473187122286  0.3306234542688217
  0.0004059655813428  0.5003143826394753  0.1989401564705512
  0.0016550566728591  0.5010651189057302  0.4607209466586720
  0.5001388787028476  0.0001753160081589  0.0696340386148993
  0.5012011705569192  0.0006969755252226  0.3306323785142907
  0.5005027753496003  0.0003478972708486  0.1989477942201588
  0.5015897905224624  0.0009706542630556  0.4607659030500013
  0.5001366355753029  0.5001075254861406  0.0691941964991508
  0.5013362058986864  0.5007363453101752  0.3302772179599268
  0.0001169497779867  0.0001652531062118  0.0703625511363352
  0.0012175207407178  0.0007792116195272  0.3299065377139496
  0.5004071442314413  0.5004363077549220  0.1988864668473292
  0.5016118352933472  0.5010147561708176  0.4550780124302551
  0.1653016125660356  0.3262441613143586  0.1359726092361496
  0.1641934214139178  0.3238465932227950  0.3998073145468988
  0.1656423331849412  0.3314163915914888  0.0013952429728873
  0.1788794711314221  0.3387232798238363  0.5254393481677122
  0.1661218644978500  0.3278733821203278  0.2631017790272137
  0.1621813778966977  0.8383140596838559  0.1348072096358994
  0.1638617413554306  0.8387745265465013  0.3980121803164729
  0.1658431892715828  0.8343071344676525  0.0012546894425876
  0.1635276204801944  0.8391961893722617  0.5267263936051906
  0.1630614893915594  0.8384396041844209  0.2639382874444844
  0.6652352345915177  0.3352609175258305  0.1343862773046077
  0.6662745278478472  0.3362117128429001  0.3967282803488354
  0.6668363961136592  0.3333161067782128  0.0003953581679184
  0.6734101589701277  0.3295238271556624  0.5292390498392893
  0.6659711118454688  0.3355333377754926  0.2638947400985011
  0.6741908440674672  0.8351582275042848  0.1359490463867751
  0.6785464025610580  0.8382448457246064  0.3998164652720343
  0.6687140646392233  0.8344943821002279  0.0013915914525730
  0.6641183315246739  0.8240796207585546  0.5254649986388527
  0.6736729122126767  0.8353920453778713  0.2630832104771174
  0.3262735989582970  0.1652643652895383  0.1359881713924969
  0.3245333530918001  0.1636993745035952  0.3998148908848370
  0.3313917950600657  0.1656718898226439  0.0013964956331936
  0.3394235676383030  0.1781490802168817  0.5254881683731508
  0.3282072068146041  0.1658337294026873  0.2631148886272074
  0.3352789683537383  0.6652118513917811  0.1343759569843994
  0.3368196291661718  0.6657171698783023  0.3967275401521831
  0.3332953075650796  0.6668528874831058  0.0003940287589537
  0.3300990796707969  0.6726991779394407  0.5292606031412751
  0.3358828586805762  0.6656155515325773  0.2638643140983281
  0.8383182499539005  0.1621672423763539  0.1347930933764490
  0.8392256846198690  0.1632644700933377  0.3980308144224193
  0.8342857700274674  0.1658719760673643  0.0012556964228912
  0.8399937409613697  0.1629782122740829  0.5266947598244868
  0.8387367751308059  0.1627363773789580  0.2639269736035522
  0.8351895647019020  0.6741771128273000  0.1359573582974701
  0.8387255811578087  0.6780009383975201  0.3997843908874829
  0.8344708523702082  0.6687510754233993  0.0013943613533716
  0.8246741640193770  0.6634502905163775  0.5254076202612578
  0.8356701039931432  0.6733102078384646  0.2630949219163780
  0.2397616377448507  0.7620001732860991  0.5711203643729561
  0.2761524686344058  0.2755737326926535  0.5699635416858329
  0.7635703400321457  0.2400181055079509  0.5710811031028045
  0.7275825279468965  0.7266430611103631  0.5699249748356414

  0.00000000E+00  0.00000000E+00  0.00000000E+00
  0.00000000E+00  0.00000000E+00  0.00000000E+00
  0.00000000E+00  0.00000000E+00  0.00000000E+00
  0.00000000E+00  0.00000000E+00  0.00000000E+00
  0.00000000E+00  0.00000000E+00  0.00000000E+00
  0.00000000E+00  0.00000000E+00  0.00000000E+00
  0.00000000E+00  0.00000000E+00  0.00000000E+00
  0.00000000E+00  0.00000000E+00  0.00000000E+00
  0.00000000E+00  0.00000000E+00  0.00000000E+00
  0.00000000E+00  0.00000000E+00  0.00000000E+00
  0.00000000E+00  0.00000000E+00  0.00000000E+00
  0.00000000E+00  0.00000000E+00  0.00000000E+00
  0.00000000E+00  0.00000000E+00  0.00000000E+00
  0.00000000E+00  0.00000000E+00  0.00000000E+00
  0.00000000E+00  0.00000000E+00  0.00000000E+00
  0.00000000E+00  0.00000000E+00  0.00000000E+00
  0.00000000E+00  0.00000000E+00  0.00000000E+00
  0.00000000E+00  0.00000000E+00  0.00000000E+00
  0.00000000E+00  0.00000000E+00  0.00000000E+00
  0.00000000E+00  0.00000000E+00  0.00000000E+00
  0.00000000E+00  0.00000000E+00  0.00000000E+00
  0.00000000E+00  0.00000000E+00  0.00000000E+00
  0.00000000E+00  0.00000000E+00  0.00000000E+00
  0.00000000E+00  0.00000000E+00  0.00000000E+00
  0.00000000E+00  0.00000000E+00  0.00000000E+00
  0.00000000E+00  0.00000000E+00  0.00000000E+00
  0.00000000E+00  0.00000000E+00  0.00000000E+00
  0.00000000E+00  0.00000000E+00  0.00000000E+00
  0.00000000E+00  0.00000000E+00  0.00000000E+00
  0.00000000E+00  0.00000000E+00  0.00000000E+00
  0.00000000E+00  0.00000000E+00  0.00000000E+00
  0.00000000E+00  0.00000000E+00  0.00000000E+00
  0.00000000E+00  0.00000000E+00  0.00000000E+00
  0.00000000E+00  0.00000000E+00  0.00000000E+00
  0.00000000E+00  0.00000000E+00  0.00000000E+00
  0.00000000E+00  0.00000000E+00  0.00000000E+00
  0.00000000E+00  0.00000000E+00  0.00000000E+00
  0.00000000E+00  0.00000000E+00  0.00000000E+00
  0.00000000E+00  0.00000000E+00  0.00000000E+00
  0.00000000E+00  0.00000000E+00  0.00000000E+00
  0.00000000E+00  0.00000000E+00  0.00000000E+00
  0.00000000E+00  0.00000000E+00  0.00000000E+00
  0.00000000E+00  0.00000000E+00  0.00000000E+00
  0.00000000E+00  0.00000000E+00  0.00000000E+00
  0.00000000E+00  0.00000000E+00  0.00000000E+00
  0.00000000E+00  0.00000000E+00  0.00000000E+00
  0.00000000E+00  0.00000000E+00  0.00000000E+00
  0.00000000E+00  0.00000000E+00  0.00000000E+00
  0.00000000E+00  0.00000000E+00  0.00000000E+00
  0.00000000E+00  0.00000000E+00  0.00000000E+00
  0.00000000E+00  0.00000000E+00  0.00000000E+00
  0.00000000E+00  0.00000000E+00  0.00000000E+00
  0.00000000E+00  0.00000000E+00  0.00000000E+00
  0.00000000E+00  0.00000000E+00  0.00000000E+00
  0.00000000E+00  0.00000000E+00  0.00000000E+00
  0.00000000E+00  0.00000000E+00  0.00000000E+00
  0.00000000E+00  0.00000000E+00  0.00000000E+00
  0.00000000E+00  0.00000000E+00  0.00000000E+00
