MoVB2                                   
1.0
       10.3670539856         0.0000000000         0.0000000000
        0.0000000000        24.2804012299         0.0000000000
        0.0000000000         0.0000000000         6.1360545158
   Mo    V    B    H
   12   12   48    3
Selective dynamics
Cartesian
    10.366975784         0.105283514         0.000000000  F F F
     0.000022441         6.105254173         0.000000000   F F F
     5.183349133         3.016544819         0.000000000   F F F
     0.000177561         3.016544819         0.000000000   F F F
     5.183604717         0.105283514         0.000000000   F F F
     5.183504581         6.105254173         0.000000000   F F F
     7.775290489         1.505385756         3.068027258   F F F
     7.775290489         7.505498409         3.068027258   F F F
     2.591763496         4.593068600         3.068027258   F F F
     2.591763496         1.503593326         3.068027258   F F F
     2.591763496         7.503967285         3.068027258   F F F
     7.775290489         4.594211578         3.068027258   F F F
    10.366691589         0.148871198         3.068027258  F F F
     0.000350933         6.077407837         3.068027258   F F F
     5.183476448         3.037094831         3.068027258   F F F
     0.000050599         3.037094831         3.068027258   F F F
     5.183888912         0.148871198         3.068027258   F F F
     5.183176041         6.077407837         3.068027258   F F F
     7.775290489         1.534487963         0.000000000   F F F
     7.775290489         7.461985111         0.000000000   F F F
     2.591763496         4.572668552         0.000000000   F F F
     2.591763496         1.532838702         0.000000000   F F F
     2.591763496         7.461796284         0.000000000   F F F
     7.775290489         4.574216366         0.000000000   F F F
     9.493845940         1.476910472         1.556906819   F F F
     9.493845940         1.476910472         4.579147339   F F F
     9.528143883         7.685607433         1.564346552   F F F
     9.528143883         7.685607433         4.571708202   F F F
     4.319953442         4.574162960         1.551887751   F F F
     4.319953442         4.574162960         4.584166527   F F F
     0.863574445         4.574162960         1.551887751   F F F
     0.863574445         4.574162960         4.584166527   F F F
     6.056735516         1.476910472         1.556906819   F F F
     6.056735516         1.476910472         4.579147339   F F F
     6.022438049         7.685607433         1.564346552   F F F
     6.022438049         7.685607433         4.571708202   F F F
     9.503665924         4.574953079         1.552072406   F F F
     9.503665924         4.574953079         4.583981991   F F F
     4.310338497         1.476010442         1.557003140   F F F
     4.310338497         1.476010442         4.579051495   F F F
     4.343911648         7.685140610         1.564721704   F F F
     4.343911648         7.685140610         4.571333408   F F F
     0.873188913         1.476010442         1.557003140   F F F
     0.873188913         1.476010442         4.579051495   F F F
     0.839615762         7.685140610         1.564721704   F F F
     0.839615762         7.685140610         4.571333408   F F F
     6.046914577         4.574953079         1.552072406   F F F
     6.046914577         4.574953079         4.583981991   F F F
     6.911349297         3.036167145         1.516077995   F F F
     6.911349297         3.036167145         4.619976521   F F F
     1.752114296        24.204673767         1.502502084  F F F
     1.752114296        24.204673767         4.633552551  F F F
     1.718550682         6.133490086         1.510425091   F F F
     1.718550682         6.133490086         4.625629425   F F F
     3.455641270         3.034839153         1.516461611   F F F
     3.455641270         3.034839153         4.619592667   F F F
     8.614729881        24.206026077         1.502605796  F F F
     8.614729881        24.206026077         4.633448601  F F F
     8.648682594         6.134580612         1.511143804   F F F
     8.648682594         6.134580612         4.624910831   F F F
     1.727885842         3.034839153         1.516461611   F F F
     1.727885842         3.034839153         4.619592667   F F F
     6.935851097        24.206026077         1.502605796  F F F
     6.935851097        24.206026077         4.633448601  F F F
     6.901897430         6.134580612         1.511143804   F F F
     6.901897430         6.134580612         4.624910831   F F F
     8.639231682         3.036167145         1.516077995   F F F
     8.639231682         3.036167145         4.619976521   F F F
     3.431412697        24.204673767         1.502502084  F F F
     3.431412697        24.204673767         4.633552551  F F F
     3.464976549         6.133490086         1.510425091   F F F
     3.464976549         6.133490086         4.625629425   F F F
     7.775290489         8.661352158         1.523368239   F F F
	 2.591760489         8.661352158         1.523368239  T T T
	 7.775290489         8.661352158         4.530728239 T T T
	 
