MoVB2                                   
   1.00000000000000     
    10.3670541410891701    0.0000000000000000    0.0000000000000000
     0.0000000000000000   24.2804004006812733    0.0000000000000000
     0.0000000000000000    0.0000000000000000    6.1360543356813579
   Mo   V    B 
    12    12    48
Selective dynamics
Direct
  0.0000000000000000  0.0000000000000000  0.0000000000000000   F   F   F
  0.0001635931377060  0.2505626883412924 -0.0000000000000000   T   T   T
  0.4999999999762679  0.1250000000144027  0.0000000000000000   F   F   F
  0.0000000000000000  0.1250000000144027  0.0000000000000000   F   F   F
  0.4999999999762679  0.0000000000000000  0.0000000000000000   F   F   F
  0.4998364068385618  0.2505626883412924 -0.0000000000000000   T   T   T
  0.7499999999643947  0.0624999999866276  0.5000000000239240   F   F   F
  0.7499999999643947  0.3087047867308900  0.5000000000239240   T   T   T
  0.2499999999881339  0.1874999951036926  0.5000000000239240   F   F   F
  0.2499999999881339  0.0624999999866276  0.5000000000239240   F   F   F
  0.2499999999881339  0.3081820711981850  0.5000000000239240   T   T   T
  0.7499999999643947  0.1874999951036926  0.5000000000239240   F   F   F
  0.0000000000000000  0.0000000000000000  0.5000000000239240   F   F   F
 -0.0003313488060511  0.2489626795704773  0.5000000000239240   T   T   T
  0.4999999999762679  0.1250000000144027  0.5000000000239240   F   F   F
  0.0000000000000000  0.1250000000144027  0.5000000000239240   F   F   F
  0.4999999999762679  0.0000000000000000  0.5000000000239240   F   F   F
  0.5003313487823191  0.2489626795704773  0.5000000000239240   T   T   T
  0.7499999999643947  0.0624999999866276  0.0000000000000000   F   F   F
  0.7499999999643947  0.3125000049127706  0.0000000000000000   F   F   F
  0.2499999999881339  0.1874999951036926  0.0000000000000000   F   F   F
  0.2499999999881339  0.0624999999866276  0.0000000000000000   F   F   F
  0.2499999999881339  0.3064642754949095 -0.0000000000000000   T   T   T
  0.7499999999643947  0.1874999951036926  0.0000000000000000   F   F   F
  0.9140864814448832  0.0624999999866276  0.2500000000119584   F   F   F
  0.9140864814448832  0.0624999999866276  0.7500000190144860   F   F   F
  0.9197723148697168  0.3164051634076603  0.2572624340349642   T   T   T
  0.9197723148697168  0.3164051634076603  0.7427375849914802   T   T   T
  0.4140864813736798  0.1874999951036926  0.2500000000119584   F   F   F
  0.4140864813736798  0.1874999951036926  0.7500000190144860   F   F   F
  0.0859135694916020  0.1874999951036926  0.2500000000119584   F   F   F
  0.0859135694916020  0.1874999951036926  0.7500000190144860   F   F   F
  0.5859135185788489  0.0624999999866276  0.2500000000119584   F   F   F
  0.5859135185788489  0.0624999999866276  0.7500000190144860   F   F   F
  0.5802276851540153  0.3164051634076603  0.2572624340349642   T   T   T
  0.5802276851540153  0.3164051634076603  0.7427375849914802   T   T   T
  0.9140864814448832  0.1874999951036926  0.2500000000119584   F   F   F
  0.9140864814448832  0.1874999951036926  0.7500000190144860   F   F   F
  0.4140864813736798  0.0624999999866276  0.2500000000119584   F   F   F
  0.4140864813736798  0.0624999999866276  0.7500000190144860   F   F   F
  0.4186010648878819  0.3157307016059525  0.2551209611665913   T   T   T
  0.4186010648878819  0.3157307016059525  0.7448790578598532   T   T   T
  0.0859135524969474  0.0624999999866276  0.2500000000119584   F   F   F
  0.0859135524969474  0.0624999999866276  0.7500000190144860   F   F   F
  0.0813989689827452  0.3157307016059525  0.2551209611665913   T   T   T
  0.0813989689827452  0.3157307016059525  0.7448790578598532   T   T   T
  0.5859135185788489  0.1874999951036926  0.2500000000119584   F   F   F
  0.5859135185788489  0.1874999951036926  0.7500000190144860   F   F   F
  0.6688061745963552  0.1250000000144027  0.2500000000119584   F   F   F
  0.6688061745963552  0.1250000000144027  0.7500000190144860   F   F   F
  0.1688061972163339  0.0000000000000000  0.2500000000119584   F   F   F
  0.1688061972163339  0.0000000000000000  0.7500000190144860   F   F   F
  0.1658271517547861  0.2519816288180287  0.2463508209016493   T   T   T
  0.1658271517547861  0.2519816288180287  0.7536491981247951   T   T   T
  0.3311938027599268  0.1250000000144027  0.2500000000119584   F   F   F
  0.3311938027599268  0.1250000000144027  0.7500000190144860   F   F   F
  0.8311937801399480  0.0000000000000000  0.2500000000119584   F   F   F
  0.8311937801399480  0.0000000000000000  0.7500000190144860   F   F   F
  0.8338225650414689  0.2530708469362980  0.2438669349487764   T   T   T
  0.8338225650414689  0.2530708469362980  0.7561330840776680   T   T   T
  0.1688061859182142  0.1250000000144027  0.2500000000119584   F   F   F
  0.1688061859182142  0.1250000000144027  0.7500000190144860   F   F   F
  0.6688061745963552  0.0000000000000000  0.2500000000119584   F   F   F
  0.6688061745963552  0.0000000000000000  0.7500000190144860   F   F   F
  0.6661773896948343  0.2530708469362980  0.2438669349487764   T   T   T
  0.6661773896948343  0.2530708469362980  0.7561330840776680   T   T   T
  0.8311937801399480  0.1249999901785799  0.2500000000119584   F   F   F
  0.8311937801399480  0.1249999901785799  0.7500000190144860   F   F   F
  0.3311938027599268  0.0000000000000000  0.2500000000119584   F   F   F
  0.3311938027599268  0.0000000000000000  0.7500000190144860   F   F   F
  0.3341728482214747  0.2519816288180287  0.2463508209016493   T   T   T
  0.3341728482214747  0.2519816288180287  0.7536491981247951   T   T   T
 
  0.00000000E+00  0.00000000E+00  0.00000000E+00
  0.00000000E+00  0.00000000E+00  0.00000000E+00
  0.00000000E+00  0.00000000E+00  0.00000000E+00
  0.00000000E+00  0.00000000E+00  0.00000000E+00
  0.00000000E+00  0.00000000E+00  0.00000000E+00
  0.00000000E+00  0.00000000E+00  0.00000000E+00
  0.00000000E+00  0.00000000E+00  0.00000000E+00
  0.00000000E+00  0.00000000E+00  0.00000000E+00
  0.00000000E+00  0.00000000E+00  0.00000000E+00
  0.00000000E+00  0.00000000E+00  0.00000000E+00
  0.00000000E+00  0.00000000E+00  0.00000000E+00
  0.00000000E+00  0.00000000E+00  0.00000000E+00
  0.00000000E+00  0.00000000E+00  0.00000000E+00
  0.00000000E+00  0.00000000E+00  0.00000000E+00
  0.00000000E+00  0.00000000E+00  0.00000000E+00
  0.00000000E+00  0.00000000E+00  0.00000000E+00
  0.00000000E+00  0.00000000E+00  0.00000000E+00
  0.00000000E+00  0.00000000E+00  0.00000000E+00
  0.00000000E+00  0.00000000E+00  0.00000000E+00
  0.00000000E+00  0.00000000E+00  0.00000000E+00
  0.00000000E+00  0.00000000E+00  0.00000000E+00
  0.00000000E+00  0.00000000E+00  0.00000000E+00
  0.00000000E+00  0.00000000E+00  0.00000000E+00
  0.00000000E+00  0.00000000E+00  0.00000000E+00
  0.00000000E+00  0.00000000E+00  0.00000000E+00
  0.00000000E+00  0.00000000E+00  0.00000000E+00
  0.00000000E+00  0.00000000E+00  0.00000000E+00
  0.00000000E+00  0.00000000E+00  0.00000000E+00
  0.00000000E+00  0.00000000E+00  0.00000000E+00
  0.00000000E+00  0.00000000E+00  0.00000000E+00
  0.00000000E+00  0.00000000E+00  0.00000000E+00
  0.00000000E+00  0.00000000E+00  0.00000000E+00
  0.00000000E+00  0.00000000E+00  0.00000000E+00
  0.00000000E+00  0.00000000E+00  0.00000000E+00
  0.00000000E+00  0.00000000E+00  0.00000000E+00
  0.00000000E+00  0.00000000E+00  0.00000000E+00
  0.00000000E+00  0.00000000E+00  0.00000000E+00
  0.00000000E+00  0.00000000E+00  0.00000000E+00
  0.00000000E+00  0.00000000E+00  0.00000000E+00
  0.00000000E+00  0.00000000E+00  0.00000000E+00
  0.00000000E+00  0.00000000E+00  0.00000000E+00
  0.00000000E+00  0.00000000E+00  0.00000000E+00
  0.00000000E+00  0.00000000E+00  0.00000000E+00
  0.00000000E+00  0.00000000E+00  0.00000000E+00
  0.00000000E+00  0.00000000E+00  0.00000000E+00
  0.00000000E+00  0.00000000E+00  0.00000000E+00
  0.00000000E+00  0.00000000E+00  0.00000000E+00
  0.00000000E+00  0.00000000E+00  0.00000000E+00
  0.00000000E+00  0.00000000E+00  0.00000000E+00
  0.00000000E+00  0.00000000E+00  0.00000000E+00
  0.00000000E+00  0.00000000E+00  0.00000000E+00
  0.00000000E+00  0.00000000E+00  0.00000000E+00
  0.00000000E+00  0.00000000E+00  0.00000000E+00
  0.00000000E+00  0.00000000E+00  0.00000000E+00
  0.00000000E+00  0.00000000E+00  0.00000000E+00
  0.00000000E+00  0.00000000E+00  0.00000000E+00
  0.00000000E+00  0.00000000E+00  0.00000000E+00
  0.00000000E+00  0.00000000E+00  0.00000000E+00
  0.00000000E+00  0.00000000E+00  0.00000000E+00
  0.00000000E+00  0.00000000E+00  0.00000000E+00
  0.00000000E+00  0.00000000E+00  0.00000000E+00
  0.00000000E+00  0.00000000E+00  0.00000000E+00
  0.00000000E+00  0.00000000E+00  0.00000000E+00
  0.00000000E+00  0.00000000E+00  0.00000000E+00
  0.00000000E+00  0.00000000E+00  0.00000000E+00
  0.00000000E+00  0.00000000E+00  0.00000000E+00
  0.00000000E+00  0.00000000E+00  0.00000000E+00
  0.00000000E+00  0.00000000E+00  0.00000000E+00
  0.00000000E+00  0.00000000E+00  0.00000000E+00
  0.00000000E+00  0.00000000E+00  0.00000000E+00
  0.00000000E+00  0.00000000E+00  0.00000000E+00
  0.00000000E+00  0.00000000E+00  0.00000000E+00
