B2 Mo                                   
   1.0000000000000000     
     6.0780000686999998    0.0000000000000000    0.0000000000000000
    -3.0390007352000001    5.2637020589999999    0.0000000000000000
     0.0000000000000000    0.0000000000000000   22.3299999237000009
   Mo   V    B    H 
    12     2    40     4
Direct
  0.0008571495343624  0.0003560378462105  0.0631470339155112
  0.0022915845465253  0.0012270214578482  0.3439932748801725
  0.0008390608719831  0.5003813536417134  0.2026758964594051
  0.0029491563918112  0.5015700734133904  0.4835654260237084
  0.0010526066840612  0.5003619138566523  0.0633446915692058
  0.0029970236607127  0.5017048251026531  0.3437729800501165
  0.5012479797102439  0.0005353999482010  0.2027245436992982
  0.5029609597509930  0.0016378730340178  0.4837230250093928
  0.5009278480478008  0.0003370211448863  0.0633267856629252
  0.5023695168951134  0.0011508890583422  0.3437646618433076
  0.5011693798574464  0.5008345087311561  0.2028363746633228
  0.5028376357592357  0.5015093979546114  0.4786874626320620
  0.5009249279633375  0.5001850180520706  0.0635329792951636
  0.5026811344884089  0.5011427792736916  0.3433614911536955
  0.1691102963272497  0.3342637403549478  0.9904022079199859
  0.1784678685244740  0.3385992656245054  0.5548930307923027
  0.1679558517337390  0.3308358194749927  0.2725608035157971
  0.1668385384122839  0.3293389155162925  0.1332001726782451
  0.1648304456560624  0.3265738847942279  0.4171394813007635
  0.1674237414071515  0.8336044224615334  0.9894639841940229
  0.1643833285835405  0.8398342589062033  0.5547441419685225
  0.1649402258103620  0.8378163626348403  0.2711949602643386
  0.1640880793976618  0.8374437827764155  0.1345433954438114
  0.1666832810179510  0.8375994257268197  0.4173550590510561
  0.6664086537458517  0.3346743397842528  0.9904420051601661
  0.6755445382916987  0.3296443564066522  0.5580858390300726
  0.6669264591402030  0.3360567548564574  0.2744858716261719
  0.6662174161332329  0.3352490310450775  0.1307287209881478
  0.6669128673322454  0.3373257143041517  0.4129437033160304
  0.6667614340416249  0.8319153068989320  0.9904123450774747
  0.6659225053755371  0.8264243435619983  0.5548979792382617
  0.6721232406684882  0.8348533433834725  0.2725681951091338
  0.6720637890423248  0.8346232886999896  0.1331564839345984
  0.6776851393655272  0.8394700497517315  0.4171694325037036
  0.3348438555010504  0.1685317484686420  0.9904105456283703
  0.3402336193192051  0.1767582324761150  0.5549591226235524
  0.3318242108884235  0.1671806034407960  0.2725892655744738
  0.3299649243973690  0.1661778985418435  0.1332202660991051
  0.3278382387464608  0.1635555677405407  0.4171395494037238
  0.3352121773579157  0.6658165353491412  0.9904254724425978
  0.3307125336238439  0.6736444420800231  0.5580777580990116
  0.3369997079996472  0.6659657766022634  0.2744140384388821
  0.3358917182999549  0.6656050884835798  0.1307406531886898
  0.3386986175825458  0.6656040935078522  0.4129497237836649
  0.8341756741149279  0.1668782495108496  0.9894557646626426
  0.8417455680393129  0.1632918223482028  0.5547738532277043
  0.8387433308286960  0.1640543911523817  0.2712194483884803
  0.8380292365740106  0.1634522881300737  0.1345184079485399
  0.8387976229548610  0.1654508567537532  0.4173318599955672
  0.8325265566246702  0.6662301097689605  0.9904249438327285
  0.8277486252855464  0.6645206551043936  0.5548555349943436
  0.8356741636904158  0.6710986482324222  0.2725608288576329
  0.8352671630125559  0.6715083492456532  0.1331534124224805
  0.8406193605042765  0.6764100285077572  0.4171827680503156
  0.2399046039064828  0.7631292292474048  0.6021242308411475
  0.2793492933764984  0.2774311286166707  0.6019540042045589
  0.7664079632113298  0.2403964950010206  0.6021521898336744
  0.7264873072046681  0.7254688205946641  0.6018559323960184

  0.00000000E+00  0.00000000E+00  0.00000000E+00
  0.00000000E+00  0.00000000E+00  0.00000000E+00
  0.00000000E+00  0.00000000E+00  0.00000000E+00
  0.00000000E+00  0.00000000E+00  0.00000000E+00
  0.00000000E+00  0.00000000E+00  0.00000000E+00
  0.00000000E+00  0.00000000E+00  0.00000000E+00
  0.00000000E+00  0.00000000E+00  0.00000000E+00
  0.00000000E+00  0.00000000E+00  0.00000000E+00
  0.00000000E+00  0.00000000E+00  0.00000000E+00
  0.00000000E+00  0.00000000E+00  0.00000000E+00
  0.00000000E+00  0.00000000E+00  0.00000000E+00
  0.00000000E+00  0.00000000E+00  0.00000000E+00
  0.00000000E+00  0.00000000E+00  0.00000000E+00
  0.00000000E+00  0.00000000E+00  0.00000000E+00
  0.00000000E+00  0.00000000E+00  0.00000000E+00
  0.00000000E+00  0.00000000E+00  0.00000000E+00
  0.00000000E+00  0.00000000E+00  0.00000000E+00
  0.00000000E+00  0.00000000E+00  0.00000000E+00
  0.00000000E+00  0.00000000E+00  0.00000000E+00
  0.00000000E+00  0.00000000E+00  0.00000000E+00
  0.00000000E+00  0.00000000E+00  0.00000000E+00
  0.00000000E+00  0.00000000E+00  0.00000000E+00
  0.00000000E+00  0.00000000E+00  0.00000000E+00
  0.00000000E+00  0.00000000E+00  0.00000000E+00
  0.00000000E+00  0.00000000E+00  0.00000000E+00
  0.00000000E+00  0.00000000E+00  0.00000000E+00
  0.00000000E+00  0.00000000E+00  0.00000000E+00
  0.00000000E+00  0.00000000E+00  0.00000000E+00
  0.00000000E+00  0.00000000E+00  0.00000000E+00
  0.00000000E+00  0.00000000E+00  0.00000000E+00
  0.00000000E+00  0.00000000E+00  0.00000000E+00
  0.00000000E+00  0.00000000E+00  0.00000000E+00
  0.00000000E+00  0.00000000E+00  0.00000000E+00
  0.00000000E+00  0.00000000E+00  0.00000000E+00
  0.00000000E+00  0.00000000E+00  0.00000000E+00
  0.00000000E+00  0.00000000E+00  0.00000000E+00
  0.00000000E+00  0.00000000E+00  0.00000000E+00
  0.00000000E+00  0.00000000E+00  0.00000000E+00
  0.00000000E+00  0.00000000E+00  0.00000000E+00
  0.00000000E+00  0.00000000E+00  0.00000000E+00
  0.00000000E+00  0.00000000E+00  0.00000000E+00
  0.00000000E+00  0.00000000E+00  0.00000000E+00
  0.00000000E+00  0.00000000E+00  0.00000000E+00
  0.00000000E+00  0.00000000E+00  0.00000000E+00
  0.00000000E+00  0.00000000E+00  0.00000000E+00
  0.00000000E+00  0.00000000E+00  0.00000000E+00
  0.00000000E+00  0.00000000E+00  0.00000000E+00
  0.00000000E+00  0.00000000E+00  0.00000000E+00
  0.00000000E+00  0.00000000E+00  0.00000000E+00
  0.00000000E+00  0.00000000E+00  0.00000000E+00
  0.00000000E+00  0.00000000E+00  0.00000000E+00
  0.00000000E+00  0.00000000E+00  0.00000000E+00
  0.00000000E+00  0.00000000E+00  0.00000000E+00
  0.00000000E+00  0.00000000E+00  0.00000000E+00
  0.00000000E+00  0.00000000E+00  0.00000000E+00
  0.00000000E+00  0.00000000E+00  0.00000000E+00
  0.00000000E+00  0.00000000E+00  0.00000000E+00
  0.00000000E+00  0.00000000E+00  0.00000000E+00
