B2 Mo                                   
   1.0000000000000000     
     6.0880565643000004    0.0000000000000000    0.0000000000000000
    -3.0505411110999998    5.2686460937000001    0.0000000000000000
     0.0000000000000000    0.0000000000000000   23.7224636078000017
   Mo   V    B    H 
    10     4    40     3
Direct
  0.0005152026337280  0.5000282290657670  0.0699023140250997
  0.0040102888774890  0.5028028088826225  0.3308467436185819
 -0.0004849736697580  0.4992583165418344  0.1990430964334728
 -0.0051025490736722  0.4953795798410183  0.4613120299042297
  0.5001306195599144 -0.0003311277609545  0.0698976127806919
  0.4981420753481303 -0.0030348926267976  0.3308497745011059
  0.5011215008339210  0.0008264074034965  0.1990616481243334
  0.5058843569068170  0.0064098616225505  0.4612690217213542
  0.5002596656444526  0.4998544494895130  0.0693976411298046
  0.5026086900468811  0.4982213007159727  0.3307125775046462
 -0.0000802938574925  0.0001982408072556  0.0704883445766993
  0.0003379260279539  0.0005471758749310  0.3303813149355437
  0.4991584702341407  0.5012916721543745  0.1992532642269190
  0.5053633195229232  0.4960616254558352  0.4573263374054723
  0.1655049596497347  0.3261056734663201  0.1361391423203276
  0.1648966030817887  0.3246254560105307  0.4000622996610939
  0.1657455580750904  0.3313197973601232  0.0015971392618352
  0.1745609230596892  0.3386426570060961  0.5272477071193233
  0.1657985317117993  0.3270081776940231  0.2631966933536972
  0.1620616723831007  0.8382039109318733  0.1350427409187666
  0.1649865842224602  0.8361516574187803  0.3977928017084105
  0.1660024410330543  0.8340628151123811  0.0015078016610301
  0.1625479329305879  0.8393653475545501  0.5270746477748260
  0.1626697419445718  0.8381158162573571  0.2641171537068828
  0.6651491059522532  0.3350937422852449  0.1344259395862165
  0.6665751625572540  0.3346679018233758  0.3958560472435025
  0.6668897478090836  0.3331979640113616  0.0005343826542319
  0.6626161395800191  0.3388565839205342  0.5233062147261167
  0.6661516363811080  0.3345416342983790  0.2641039388338839
  0.6741197455128554  0.8347434706662042  0.1361274232142038
  0.6763369966743469  0.8361823325289971  0.4000779190726652
  0.6687369163460637  0.8343206659644546  0.0015921737628346
  0.6628681391296287  0.8268553648917290  0.5272589045174126
  0.6737154489898005  0.8348675031614675  0.2631822426424926
  0.3262576938189269  0.1650658243633120  0.1361515924287525
  0.3241988494628402  0.1627141272832686  0.3997134615744313
  0.3315008101799209  0.1655497492409663  0.0016289756304559
  0.3342297248552519  0.1740646499150879  0.5272266859141467
  0.3280973951242087  0.1657059658827421  0.2631302100805877
  0.3351936591670961  0.6650629710527690  0.1345753393880457
  0.3369689872923196  0.6641179442351466  0.3976506890237267
  0.3333372516479187  0.6667187109542697  0.0005111273479557
  0.3299521782159804  0.6717511419851345  0.5296232944122918
  0.3358378465889006  0.6648434745085305  0.2638432963876018
  0.8382371598285233  0.1619973043191552  0.1350010683216137
  0.8398124844292795  0.1615215454773166  0.3976993703912642
  0.8343025779270656  0.1657588766591286  0.0014305994674390
  0.8451173535152900  0.1563101466619450  0.5201399310371737
  0.8383116482597266  0.1623045175633873  0.2639084720934754
  0.8351527295937041  0.6739846837859192  0.1361326349244081
  0.8384175856299996  0.6768495942937688  0.3996531014145323
  0.8345132217194811  0.6685577844646371  0.0016283772669158
  0.8276434886018471  0.6675767433249372  0.5271296368712425
  0.8348714893482548  0.6725314861553536  0.2631195401700193
  0.2409621835602991  0.7608686549488277  0.5710286685492550
  0.2631879038044961  0.2727651488976382  0.5716556636083271
  0.7301393529314977  0.7381826076797915  0.5715872096031628

  0.00000000E+00  0.00000000E+00  0.00000000E+00
  0.00000000E+00  0.00000000E+00  0.00000000E+00
  0.00000000E+00  0.00000000E+00  0.00000000E+00
  0.00000000E+00  0.00000000E+00  0.00000000E+00
  0.00000000E+00  0.00000000E+00  0.00000000E+00
  0.00000000E+00  0.00000000E+00  0.00000000E+00
  0.00000000E+00  0.00000000E+00  0.00000000E+00
  0.00000000E+00  0.00000000E+00  0.00000000E+00
  0.00000000E+00  0.00000000E+00  0.00000000E+00
  0.00000000E+00  0.00000000E+00  0.00000000E+00
  0.00000000E+00  0.00000000E+00  0.00000000E+00
  0.00000000E+00  0.00000000E+00  0.00000000E+00
  0.00000000E+00  0.00000000E+00  0.00000000E+00
  0.00000000E+00  0.00000000E+00  0.00000000E+00
  0.00000000E+00  0.00000000E+00  0.00000000E+00
  0.00000000E+00  0.00000000E+00  0.00000000E+00
  0.00000000E+00  0.00000000E+00  0.00000000E+00
  0.00000000E+00  0.00000000E+00  0.00000000E+00
  0.00000000E+00  0.00000000E+00  0.00000000E+00
  0.00000000E+00  0.00000000E+00  0.00000000E+00
  0.00000000E+00  0.00000000E+00  0.00000000E+00
  0.00000000E+00  0.00000000E+00  0.00000000E+00
  0.00000000E+00  0.00000000E+00  0.00000000E+00
  0.00000000E+00  0.00000000E+00  0.00000000E+00
  0.00000000E+00  0.00000000E+00  0.00000000E+00
  0.00000000E+00  0.00000000E+00  0.00000000E+00
  0.00000000E+00  0.00000000E+00  0.00000000E+00
  0.00000000E+00  0.00000000E+00  0.00000000E+00
  0.00000000E+00  0.00000000E+00  0.00000000E+00
  0.00000000E+00  0.00000000E+00  0.00000000E+00
  0.00000000E+00  0.00000000E+00  0.00000000E+00
  0.00000000E+00  0.00000000E+00  0.00000000E+00
  0.00000000E+00  0.00000000E+00  0.00000000E+00
  0.00000000E+00  0.00000000E+00  0.00000000E+00
  0.00000000E+00  0.00000000E+00  0.00000000E+00
  0.00000000E+00  0.00000000E+00  0.00000000E+00
  0.00000000E+00  0.00000000E+00  0.00000000E+00
  0.00000000E+00  0.00000000E+00  0.00000000E+00
  0.00000000E+00  0.00000000E+00  0.00000000E+00
  0.00000000E+00  0.00000000E+00  0.00000000E+00
  0.00000000E+00  0.00000000E+00  0.00000000E+00
  0.00000000E+00  0.00000000E+00  0.00000000E+00
  0.00000000E+00  0.00000000E+00  0.00000000E+00
  0.00000000E+00  0.00000000E+00  0.00000000E+00
  0.00000000E+00  0.00000000E+00  0.00000000E+00
  0.00000000E+00  0.00000000E+00  0.00000000E+00
  0.00000000E+00  0.00000000E+00  0.00000000E+00
  0.00000000E+00  0.00000000E+00  0.00000000E+00
  0.00000000E+00  0.00000000E+00  0.00000000E+00
  0.00000000E+00  0.00000000E+00  0.00000000E+00
  0.00000000E+00  0.00000000E+00  0.00000000E+00
  0.00000000E+00  0.00000000E+00  0.00000000E+00
  0.00000000E+00  0.00000000E+00  0.00000000E+00
  0.00000000E+00  0.00000000E+00  0.00000000E+00
  0.00000000E+00  0.00000000E+00  0.00000000E+00
  0.00000000E+00  0.00000000E+00  0.00000000E+00
  0.00000000E+00  0.00000000E+00  0.00000000E+00
