MoB2                                    
   1.0000000000000000     
     8.6453199387000002    0.0000000000000000    0.0000000000000000
    -2.1414606584000002    5.6957327634999997    0.0000000000000000
    -0.2384319305000000   -9.8409511943000005   23.9952660313000017
   Mo   V    B    H 
    12     4    32     1
Selective dynamics
Direct
  0.0061712503021170  0.5079151292077171  0.3370482557038699   F   F   F
  0.9971459702300152  0.4975658321089682  0.4995448073951039   F   F   F
  0.5061713194924238  0.0079151860485140  0.3370482557038699   F   F   F
  0.4971458528449233  0.9975658590150758  0.4995448073951039   F   F   F
  0.2507858134114045  0.0022825154000259  0.4172066840576534   F   F   F
  0.2451314153318904  0.9920541414068680  0.5796275626974747   F   F   F
  0.2502470458924861  0.4997667626077416  0.4170534699197006   F   F   F
  0.2456309020346197  0.4921310481845396  0.5795416753396410   F   F   F
  0.7502470561091954  0.9997668314750854  0.4170534699197006   F   F   F
  0.7456309191914983  0.9921311170518834  0.5795416753396410   F   F   F
  0.7507858475092704  0.5022823748123244  0.4172066840576534   F   F   F
  0.7451313689289378  0.4920541145007604  0.5796275626974747   F   F   F
  0.0048442088566532  0.0097818195306019  0.3378458436937279   F   F   F
  0.9989013046491664  0.9976386093032446  0.4985830358535850   F   F   F
  0.5048441288716035  0.5097817628653729  0.3378458436937279   F   F   F
  0.4989013669408635  0.4976385823971370  0.4985830358535850   F   F   F
  0.4558479156203603  0.3320475147161446  0.4011295309435070   F   F   F
  0.4606328767140795  0.3642098989712892  0.5892324410388738   F   F   F
  0.4550810959511651  0.8249903734863366  0.4002251500972278   F   F   F
  0.4610424707430738  0.8622407245259680  0.5878423454693333   F   F   F
  0.9550811064371487  0.3249904721128019  0.4002251500972278   F   F   F
  0.9610425156591660  0.3622407394055287  0.5878423454693333   F   F   F
  0.9558478775240573  0.8320474160896794  0.4011295309435070   F   F   F
  0.9606329386161221  0.8642097585591486  0.5892324410388738   F   F   F
  0.2088231574162194  0.3326283962004624  0.4869503253999525   F   F   F
  0.2096349244476983  0.3303297788154680  0.3176349089882180   F   F   F
  0.2047979988249580  0.8362124668011717  0.4874823421729033   F   F   F
  0.2078047272079360  0.8302799844298860  0.3168406396529591   F   F   F
  0.7047979196481222  0.3362123561481525  0.4874823421729033   F   F   F
  0.7078047607953266  0.3302798527084647  0.3168406396529591   F   F   F
  0.7088232400978356  0.8326285068534816  0.4869503253999525   F   F   F
  0.7096349381902840  0.8303298894684801  0.3176349089882180   F   F   F
  0.0400515943538124  0.1629686313162182  0.4297710399438017   F   F   F
  0.0424899421377347  0.1692952971444441  0.5988115650919283   F   F   F
  0.0403060187914690  0.6671143438028224  0.4299684894738007   F   F   F
  0.0432293469670455  0.6730029821140917  0.6008491345415123   F   F   F
  0.5403060569224678  0.1671144424292876  0.4299684894738007   F   F   F
  0.5432293884688519  0.1730030387793207  0.6008491345415123   F   F   F
  0.5400516277970766  0.6629685744754141  0.4297710399438017   F   F   F
  0.5424898420425706  0.6692951985179789  0.5988115650919283   F   F   F
  0.2899571390860558  0.1440851202164737  0.3318817590358094   F   F   F
  0.2942827775136294  0.1716428290831615  0.5152532927066744   F   F   F
  0.2910326442249911  0.6307323212480682  0.3243541745212468   F   F   F
  0.2961277060074536  0.6690833904430846  0.5153211361720480   F   F   F
  0.7910323824848007  0.1307323780888723  0.3243541745212468   F   F   F
  0.7961275441064402  0.1690834053226453  0.5153211361720480   F   F   F
  0.7899569354666696  0.6440850215900085  0.3318817590358094   F   F   F
  0.7942827117723112  0.6716427304566892  0.5152532927066744   F   F   F
  0.8312072407246583  0.3532259479672389  0.6281431710427439   T   T   T

  0.00000000E+00  0.00000000E+00  0.00000000E+00
  0.00000000E+00  0.00000000E+00  0.00000000E+00
  0.00000000E+00  0.00000000E+00  0.00000000E+00
  0.00000000E+00  0.00000000E+00  0.00000000E+00
  0.00000000E+00  0.00000000E+00  0.00000000E+00
  0.00000000E+00  0.00000000E+00  0.00000000E+00
  0.00000000E+00  0.00000000E+00  0.00000000E+00
  0.00000000E+00  0.00000000E+00  0.00000000E+00
  0.00000000E+00  0.00000000E+00  0.00000000E+00
  0.00000000E+00  0.00000000E+00  0.00000000E+00
  0.00000000E+00  0.00000000E+00  0.00000000E+00
  0.00000000E+00  0.00000000E+00  0.00000000E+00
  0.00000000E+00  0.00000000E+00  0.00000000E+00
  0.00000000E+00  0.00000000E+00  0.00000000E+00
  0.00000000E+00  0.00000000E+00  0.00000000E+00
  0.00000000E+00  0.00000000E+00  0.00000000E+00
  0.00000000E+00  0.00000000E+00  0.00000000E+00
  0.00000000E+00  0.00000000E+00  0.00000000E+00
  0.00000000E+00  0.00000000E+00  0.00000000E+00
  0.00000000E+00  0.00000000E+00  0.00000000E+00
  0.00000000E+00  0.00000000E+00  0.00000000E+00
  0.00000000E+00  0.00000000E+00  0.00000000E+00
  0.00000000E+00  0.00000000E+00  0.00000000E+00
  0.00000000E+00  0.00000000E+00  0.00000000E+00
  0.00000000E+00  0.00000000E+00  0.00000000E+00
  0.00000000E+00  0.00000000E+00  0.00000000E+00
  0.00000000E+00  0.00000000E+00  0.00000000E+00
  0.00000000E+00  0.00000000E+00  0.00000000E+00
  0.00000000E+00  0.00000000E+00  0.00000000E+00
  0.00000000E+00  0.00000000E+00  0.00000000E+00
  0.00000000E+00  0.00000000E+00  0.00000000E+00
  0.00000000E+00  0.00000000E+00  0.00000000E+00
  0.00000000E+00  0.00000000E+00  0.00000000E+00
  0.00000000E+00  0.00000000E+00  0.00000000E+00
  0.00000000E+00  0.00000000E+00  0.00000000E+00
  0.00000000E+00  0.00000000E+00  0.00000000E+00
  0.00000000E+00  0.00000000E+00  0.00000000E+00
  0.00000000E+00  0.00000000E+00  0.00000000E+00
  0.00000000E+00  0.00000000E+00  0.00000000E+00
  0.00000000E+00  0.00000000E+00  0.00000000E+00
  0.00000000E+00  0.00000000E+00  0.00000000E+00
  0.00000000E+00  0.00000000E+00  0.00000000E+00
  0.00000000E+00  0.00000000E+00  0.00000000E+00
  0.00000000E+00  0.00000000E+00  0.00000000E+00
  0.00000000E+00  0.00000000E+00  0.00000000E+00
  0.00000000E+00  0.00000000E+00  0.00000000E+00
  0.00000000E+00  0.00000000E+00  0.00000000E+00
  0.00000000E+00  0.00000000E+00  0.00000000E+00
  0.00000000E+00  0.00000000E+00  0.00000000E+00
