 2 Mo0.5b2                              
   1.0000000000000000     
     6.0780000686999998    0.0000000000000000    0.0000000000000000
    -3.0390007352000001    5.2637020589999999    0.0000000000000000
     0.0000000000000000    0.0000000000000000   22.2200002669999996
   Mo   V    B 
     8     6    40
Direct
 -0.0003130733193088 -0.0000134696584344  0.2059480406264199
 -0.0003088220451670 -0.0000470003512613  0.4816399291856113
 -0.0003304788312435 -0.0000398692303227  0.0698473857626597
 -0.0003313017365850 -0.0000508666304910  0.3463660692483315
  0.4996530226151812  0.4999812318930099  0.2059457998861121
  0.4996416819187408  0.4999941606962967  0.4816293890877896
  0.4996115402235621  0.4999937169673558  0.0698548936707538
  0.4996148019554983  0.4999902721259804  0.3463665295977979
  0.9996454657935482  0.4999634526939435  0.0705151628359998
  0.9996871735253360  0.5000001304785611  0.3450580404879338
  0.4997208805204910 -0.0000465318281713  0.2071333133095505
  0.4996992717370949 -0.0000067811712505  0.4894971471370379
  0.4996794218538327 -0.0000180461877801  0.0694224212655990
  0.4996430550807255 -0.0000064994034596  0.3455013749213169
  0.1656645742398345  0.3338782263648800 -0.0028866627550714
  0.1681705351878746  0.3313988070943574  0.5562737578355014
  0.1619986012839549  0.3376929852315726  0.2746880938117518
  0.1608278492796901  0.3389481045943374  0.1386677424511881
  0.1592658396942171  0.3405763718693879  0.4168246994071164
  0.8336973575088578  0.6660744868696620 -0.0028771624936017
  0.8311832512761240  0.6685754286063946  0.5562794746791369
  0.8373266768320001  0.6622338662076186  0.2746962650604260
  0.8384818070251385  0.6610620844091137  0.1386444070925529
  0.8401440134733088  0.6594560854646524  0.4168104384111049
  0.6657246258793912  0.8340379941488931 -0.0025792677370465
  0.6676140743480384  0.8321626331438351  0.5514214034745452
  0.6636798529477648  0.8359826000469609  0.2755073166923227
  0.6628373473493204  0.8367298144096937  0.1369764186025757
  0.6629447770270898  0.8367049439479586  0.4142524116408558
  0.3336693788160360  0.1659135471350113 -0.0025811759162072
  0.3317516688725397  0.1678113243220949  0.5514327037848360
  0.3356714408625959  0.1639698279523651  0.2755000322456106
  0.3364046440573717  0.1631818035104379  0.1369801695053641
  0.3363779634050166  0.1632428604598590  0.4142607986207875
  0.1671080877217484  0.8321065430086457 -0.0013697476683179
  0.1626279967876719  0.8272799066789851  0.5516936695389794
  0.1666478954505403  0.8282713484585903  0.2746127761665398
  0.1675966244256860  0.8284693880039226  0.1384554510575228
  0.1689881418403065  0.8295254502942742  0.4161747360347138
  0.8322918648037048  0.1678673531145322 -0.0013647096155408
  0.8367146379189188  0.1726671186675420  0.5516906725067491
  0.8327330997728178  0.1717012835519818  0.2746193156971839
  0.8315774643392276  0.1715281071157927  0.1384480163345636
  0.8302435236242898  0.1704714551304593  0.4161698840860123
  0.6674707916475950  0.3326807991962769 -0.0013894913699808
  0.6722959127847388  0.3371077100118751  0.5516928193622846
  0.6713570515179665  0.3329856955884199  0.2746368642806275
  0.6711893759784224  0.3318744708042657  0.1384296312335671
  0.6701469074298441  0.3305140277543900  0.4161499985012515
  0.3319061789622096  0.6672683970265787 -0.0013999678656357
  0.3271010783680970  0.6628806001210379  0.5516931144930874
  0.3279498937123714  0.6669825666974564  0.2746240875975633
  0.3281025843189534  0.6679931592944048  0.1384554423379352
  0.3292142910353986  0.6693546935639891  0.4161708344539534

  0.00000000E+00  0.00000000E+00  0.00000000E+00
  0.00000000E+00  0.00000000E+00  0.00000000E+00
  0.00000000E+00  0.00000000E+00  0.00000000E+00
  0.00000000E+00  0.00000000E+00  0.00000000E+00
  0.00000000E+00  0.00000000E+00  0.00000000E+00
  0.00000000E+00  0.00000000E+00  0.00000000E+00
  0.00000000E+00  0.00000000E+00  0.00000000E+00
  0.00000000E+00  0.00000000E+00  0.00000000E+00
  0.00000000E+00  0.00000000E+00  0.00000000E+00
  0.00000000E+00  0.00000000E+00  0.00000000E+00
  0.00000000E+00  0.00000000E+00  0.00000000E+00
  0.00000000E+00  0.00000000E+00  0.00000000E+00
  0.00000000E+00  0.00000000E+00  0.00000000E+00
  0.00000000E+00  0.00000000E+00  0.00000000E+00
  0.00000000E+00  0.00000000E+00  0.00000000E+00
  0.00000000E+00  0.00000000E+00  0.00000000E+00
  0.00000000E+00  0.00000000E+00  0.00000000E+00
  0.00000000E+00  0.00000000E+00  0.00000000E+00
  0.00000000E+00  0.00000000E+00  0.00000000E+00
  0.00000000E+00  0.00000000E+00  0.00000000E+00
  0.00000000E+00  0.00000000E+00  0.00000000E+00
  0.00000000E+00  0.00000000E+00  0.00000000E+00
  0.00000000E+00  0.00000000E+00  0.00000000E+00
  0.00000000E+00  0.00000000E+00  0.00000000E+00
  0.00000000E+00  0.00000000E+00  0.00000000E+00
  0.00000000E+00  0.00000000E+00  0.00000000E+00
  0.00000000E+00  0.00000000E+00  0.00000000E+00
  0.00000000E+00  0.00000000E+00  0.00000000E+00
  0.00000000E+00  0.00000000E+00  0.00000000E+00
  0.00000000E+00  0.00000000E+00  0.00000000E+00
  0.00000000E+00  0.00000000E+00  0.00000000E+00
  0.00000000E+00  0.00000000E+00  0.00000000E+00
  0.00000000E+00  0.00000000E+00  0.00000000E+00
  0.00000000E+00  0.00000000E+00  0.00000000E+00
  0.00000000E+00  0.00000000E+00  0.00000000E+00
  0.00000000E+00  0.00000000E+00  0.00000000E+00
  0.00000000E+00  0.00000000E+00  0.00000000E+00
  0.00000000E+00  0.00000000E+00  0.00000000E+00
  0.00000000E+00  0.00000000E+00  0.00000000E+00
  0.00000000E+00  0.00000000E+00  0.00000000E+00
  0.00000000E+00  0.00000000E+00  0.00000000E+00
  0.00000000E+00  0.00000000E+00  0.00000000E+00
  0.00000000E+00  0.00000000E+00  0.00000000E+00
  0.00000000E+00  0.00000000E+00  0.00000000E+00
  0.00000000E+00  0.00000000E+00  0.00000000E+00
  0.00000000E+00  0.00000000E+00  0.00000000E+00
  0.00000000E+00  0.00000000E+00  0.00000000E+00
  0.00000000E+00  0.00000000E+00  0.00000000E+00
  0.00000000E+00  0.00000000E+00  0.00000000E+00
  0.00000000E+00  0.00000000E+00  0.00000000E+00
  0.00000000E+00  0.00000000E+00  0.00000000E+00
  0.00000000E+00  0.00000000E+00  0.00000000E+00
  0.00000000E+00  0.00000000E+00  0.00000000E+00
  0.00000000E+00  0.00000000E+00  0.00000000E+00
