B2 Mo                                   
   1.0000000000000000     
     6.0425882339000001    0.0000000000000000    0.0000000000000000
    -3.0210584412000001    5.2331368390000002    0.0000000000000000
     0.0000662017000000    0.0000750229000000   23.4135704038000014
   Mo   V    B 
     6     8    40
Direct
  0.9996479359395474  0.9999830030488723  0.0697477583729550
  0.9996426960259388  0.9999805849234250  0.3305016789233228
  0.4996508933066991  0.4999810764471534  0.1984424589344085
  0.4996494107167806  0.4999774748774247  0.4588253766352921
  0.4996453142947423  0.4999828722944298  0.0694784024814997
  0.4996572575339804  0.4999798327186489  0.3314806861035749
  0.9996560626544488  0.4999797623044344  0.1996499237301067
  0.9996451535102343  0.4999767355506753  0.4637945225233455
  0.9996516009015022  0.4999787625400245  0.0691897162279300
  0.9996533289608445  0.4999780591178038  0.3307924887033700
  0.4996542803266606  0.9999784450246439  0.1996500371042838
  0.4996460076367976  0.9999792863787682  0.4637935131014609
  0.4996535993232405  0.9999796498664923  0.0691893694993586
  0.4996518885988213  0.9999789113961602  0.3307924199865654
  0.1654017173695066  0.3340269154964336  0.0004943079521189
  0.1670688936485680  0.3347775628498731  0.5268251716469916
  0.1610167547454170  0.3295955147056633  0.2622786168416808
  0.1604376639534550  0.3295822502601738  0.1359057407046011
  0.1597082568289568  0.3286721919060668  0.3986353622956534
  0.8338985702558328  0.6659396103469009  0.0004947112360588
  0.8322171403727490  0.6651763502286543  0.5268236549399494
  0.8382766281431399  0.6703621342253786  0.2622777359225521
  0.8388602722380204  0.6703737882403594  0.1359048597708641
  0.8395740407486794  0.6712750214462496  0.3986338055554754
  0.6656038541387428  0.8342319038560796  0.0004935386309733
  0.6648390218552247  0.8325485645733716  0.5268246900707454
  0.6700280528650984  0.8386105795421935  0.2622776209227444
  0.6700445612044619  0.8391900393090039  0.1359058417571326
  0.6709527816009773  0.8399083096847783  0.3986353879724694
  0.3336960488072525  0.1657375896481525  0.0004948750806152
  0.3344336831046098  0.1674001561429750  0.5268246137918837
  0.3292630782352126  0.1613500113799580  0.2622780659341960
  0.3292490208079965  0.1607613408530681  0.1359052602512850
  0.3283477765103436  0.1600435794017971  0.3986335023384758
  0.1670673684082487  0.8325688922131410  0.0015826321719223
  0.1618429143271864  0.8377839662152958  0.5228527600022177
  0.1657276338543907  0.8338979251680744  0.2622027548487976
  0.1663597040855432  0.8332653413276626  0.1357306936606278
  0.1670957217715343  0.8325392649944970  0.3985267537693752
  0.8322300034036251  0.1673999719686936  0.0015834368697622
  0.8374493764343639  0.1621761052746597  0.5228563703215118
  0.8335667772652068  0.1660639206709817  0.2622023772990683
  0.8329279219747175  0.1666976293819004  0.1357315726092417
  0.8322150248940442  0.1674232910635616  0.3985288535801296
  0.6671860836425844  0.3324506476867898  0.0017486848483788
  0.6659957198511850  0.3336309933669798  0.5239213703144597
  0.6684978404440125  0.3311260743229020  0.2645234111626540
  0.6689627620950198  0.3306678443146945  0.1329955532989447
  0.6688121709960085  0.3308146054450501  0.3957352369466057
  0.3321191715833328  0.6675184558282323  0.0017488609188285
  0.3332902005768150  0.6663185758310463  0.5239191312541892
  0.3307939538576762  0.6688332914117571  0.2645241273032965
  0.3303444340254852  0.6692886915705882  0.1329961684175947
  0.3304799236268715  0.6691432348952363  0.3957345362355355

  0.00000000E+00  0.00000000E+00  0.00000000E+00
  0.00000000E+00  0.00000000E+00  0.00000000E+00
  0.00000000E+00  0.00000000E+00  0.00000000E+00
  0.00000000E+00  0.00000000E+00  0.00000000E+00
  0.00000000E+00  0.00000000E+00  0.00000000E+00
  0.00000000E+00  0.00000000E+00  0.00000000E+00
  0.00000000E+00  0.00000000E+00  0.00000000E+00
  0.00000000E+00  0.00000000E+00  0.00000000E+00
  0.00000000E+00  0.00000000E+00  0.00000000E+00
  0.00000000E+00  0.00000000E+00  0.00000000E+00
  0.00000000E+00  0.00000000E+00  0.00000000E+00
  0.00000000E+00  0.00000000E+00  0.00000000E+00
  0.00000000E+00  0.00000000E+00  0.00000000E+00
  0.00000000E+00  0.00000000E+00  0.00000000E+00
  0.00000000E+00  0.00000000E+00  0.00000000E+00
  0.00000000E+00  0.00000000E+00  0.00000000E+00
  0.00000000E+00  0.00000000E+00  0.00000000E+00
  0.00000000E+00  0.00000000E+00  0.00000000E+00
  0.00000000E+00  0.00000000E+00  0.00000000E+00
  0.00000000E+00  0.00000000E+00  0.00000000E+00
  0.00000000E+00  0.00000000E+00  0.00000000E+00
  0.00000000E+00  0.00000000E+00  0.00000000E+00
  0.00000000E+00  0.00000000E+00  0.00000000E+00
  0.00000000E+00  0.00000000E+00  0.00000000E+00
  0.00000000E+00  0.00000000E+00  0.00000000E+00
  0.00000000E+00  0.00000000E+00  0.00000000E+00
  0.00000000E+00  0.00000000E+00  0.00000000E+00
  0.00000000E+00  0.00000000E+00  0.00000000E+00
  0.00000000E+00  0.00000000E+00  0.00000000E+00
  0.00000000E+00  0.00000000E+00  0.00000000E+00
  0.00000000E+00  0.00000000E+00  0.00000000E+00
  0.00000000E+00  0.00000000E+00  0.00000000E+00
  0.00000000E+00  0.00000000E+00  0.00000000E+00
  0.00000000E+00  0.00000000E+00  0.00000000E+00
  0.00000000E+00  0.00000000E+00  0.00000000E+00
  0.00000000E+00  0.00000000E+00  0.00000000E+00
  0.00000000E+00  0.00000000E+00  0.00000000E+00
  0.00000000E+00  0.00000000E+00  0.00000000E+00
  0.00000000E+00  0.00000000E+00  0.00000000E+00
  0.00000000E+00  0.00000000E+00  0.00000000E+00
  0.00000000E+00  0.00000000E+00  0.00000000E+00
  0.00000000E+00  0.00000000E+00  0.00000000E+00
  0.00000000E+00  0.00000000E+00  0.00000000E+00
  0.00000000E+00  0.00000000E+00  0.00000000E+00
  0.00000000E+00  0.00000000E+00  0.00000000E+00
  0.00000000E+00  0.00000000E+00  0.00000000E+00
  0.00000000E+00  0.00000000E+00  0.00000000E+00
  0.00000000E+00  0.00000000E+00  0.00000000E+00
  0.00000000E+00  0.00000000E+00  0.00000000E+00
  0.00000000E+00  0.00000000E+00  0.00000000E+00
  0.00000000E+00  0.00000000E+00  0.00000000E+00
  0.00000000E+00  0.00000000E+00  0.00000000E+00
  0.00000000E+00  0.00000000E+00  0.00000000E+00
  0.00000000E+00  0.00000000E+00  0.00000000E+00
