B2 Mo                                   
   1.0000000000000000     
     3.0026041706997382    0.0000000000007771   -0.0000000000000000
    -1.5013020853985974    2.6003314893293283   -0.0000000000000000
     0.0000000000000000    0.0000000000000000    3.3062236741057678
   Mo   B 
     1     2
Direct
 -0.0000000000000000 -0.0000000000000000 -0.0000000000000000
  0.3333333364093178  0.6666666727967012  0.4999999998690683
  0.6666665784412444  0.3333333136007113  0.4999999998690683

  0.00000000E+00  0.00000000E+00  0.00000000E+00
  0.00000000E+00  0.00000000E+00  0.00000000E+00
  0.00000000E+00  0.00000000E+00  0.00000000E+00
