B2 Mo                                   
1.0
        6.0715007782         0.0000000000         0.0000000000
       -3.0336328746         5.2592958922         0.0000000000
        0.0000000000         0.0000000000        25.8633270264
   Mo    V    B     H
   12    4   34       1
Cartesian
     0.000000000         0.000000000         1.795100927
     0.000000000         0.000000000         8.027894974
    -1.516816497         2.629647970         4.867347240
    -1.516816497         2.629647970        11.223308563
    -1.516816497         2.629647970         1.715775013
    -1.516816497         2.629647970         7.993281364
     3.035749912         0.000000000         4.867347240
     3.035749912         0.000000000        11.223308563
     3.035749912         0.000000000         1.715775013
     3.035749912         0.000000000         7.993281364
     1.518933892         2.629647970         4.853078842
     1.518933892         2.629647970        11.217270851
     0.000000000         0.000000000         4.842073917
     0.000000000         0.000000000        11.203404427
     1.518933892         2.629647970         1.805522442
     1.518933892         2.629647970         8.000568390
     0.012825608         1.743444324         6.423983097
     0.000821233         1.744378328        12.847119331
     0.005049586         1.741587043         3.204494238
     0.008381128         1.749939322         9.655252457
    -1.532479167         4.392199993         6.395320892
    -1.524195433         4.387415409        12.848026276
    -1.525207400         4.388000011         3.214779854
    -1.525001764         4.387880802         9.676923752
     2.988812208         1.780619025         0.457733512
     3.036868811         1.752860785        12.875138283
     3.021015167         1.762018085         6.461921215
     3.023758411         1.760433316         3.247896910
     3.028005600         1.757980227         9.633562088
     1.534057379         4.377070904         6.423983097
     1.527250528         4.387002945        12.847119331
     1.531781197         4.384735107         3.204494238
     1.526211262         4.377675533         9.655252457
     1.503810167         0.882224023         6.423983097
     1.510617137         0.872292101        12.847119331
     1.506086588         0.874560177         3.204494238
     1.511657000         0.881619215         9.655252457
     0.049055576         3.478677034         0.457733512
     0.000998735         3.506435394        12.875138283
     0.016852617         3.497277975         6.461921215
     0.014109135         3.498862743         3.247896910
     0.009862185         3.501315832         9.633562088
     4.570344925         0.867094815         6.395320892
     4.562061310         0.871879697        12.848026276
     4.563073158         0.871295154         3.214779854
     4.562867165         0.871414125         9.676923752
     3.025041342         3.515850544         6.423983097
     3.037045956         3.514916897        12.847119331
     3.032817125         3.517708063         3.204494238
     3.029485703         3.509355783         9.655252457
	 -0.822977424         3.985130072        13.762085724
	 
