B2 Mo                                   
   1.0000000000000000     
     6.0880565643000004    0.0000000000000000    0.0000000000000000
    -3.0505411110999998    5.2686460937000001    0.0000000000000000
     0.0000000000000000    0.0000000000000000   23.7224636078000017
   Mo   V    B    H 
    10     4    40     2
Direct
  0.0000932270816718  0.4996580551749727  0.0701208563422115
  0.0056291200446436  0.5025967985274368  0.3312462153039022
 -0.0013265024521086  0.4983334738030140  0.1993406624717167
 -0.0048240153184985  0.4972315024982952  0.4620612160621547
  0.4998743454010765 -0.0005541817363192  0.0701309918688003
  0.4998229601483770 -0.0007251996309071  0.3312656942179010
  0.5004077980741165 -0.0010449810900165  0.1993628572294809
  0.5072679944755363  0.0037234687276028  0.4612584199055607
  0.5001228446667084  0.4996238998325633  0.0695279026748158
  0.5026557920825308  0.4979114950879079  0.3308069236426368
 -0.0006469269467275 -0.0007172635868174  0.0707089905023059
 -0.0005682401672107 -0.0031472003108479  0.3304184165549843
  0.4993877896118150  0.5001017644138495  0.1993893071195620
  0.5036697560185327  0.4931104189746672  0.4577633585680809
  0.1652683565889172  0.3256075742697584  0.1362718731395701
  0.1648608412842530  0.3244794960855478  0.3994674451991803
  0.1654259740242047  0.3310741616297375  0.0018279441867033
  0.1734419833040175  0.3373945351970420  0.5273780435278461
  0.1654426968415653  0.3256371209443302  0.2635227639575205
  0.1619226359687332  0.8376274150358424  0.1352150319255636
  0.1639598058036806  0.8352830332973289  0.3986356095474606
  0.1657583844650790  0.8337606336465437  0.0016189613764745
  0.1621880888507645  0.8388140910556360  0.5275471327620201
  0.1623179369740927  0.8363567199011366  0.2643820122894749
  0.6649160596083273  0.3345191070839985  0.1346481106033835
  0.6666726371460724  0.3339602528358643  0.3963751751087724
  0.6667447144473357  0.3328876738921347  0.0007500782079146
  0.6633335878533286  0.3374829316987466  0.5243236425087270
  0.6659982382987484  0.3336984676908790  0.2642926439963988
  0.6737411174762780  0.8342061345984007  0.1363249137017916
  0.6766856678509889  0.8347309110222594  0.4005864652661674
  0.6686105842326460  0.8342446623310980  0.0018192762612027
  0.6638311887688937  0.8276148043186982  0.5257230972834283
  0.6733546266974185  0.8337973708751734  0.2632636452316033
  0.3261109619244682  0.1646212687149494  0.1363377894173390
  0.3245306332075285  0.1623295251311577  0.3992786686344718
  0.3312692947449910  0.1652981057117917  0.0018308419728536
  0.3339801655244763  0.1720955545086300  0.5272511741992576
  0.3277566582572494  0.1646862922161001  0.2634590105993700
  0.3349971877481657  0.6645486432503104  0.1347826494569433
  0.3366092173551439  0.6631313642615588  0.3976524162561546
  0.3330861235532087  0.6665878105923005  0.0007352028101041
  0.3317956261046899  0.6709501477684113  0.5302171563722130
  0.3356411252033589  0.6641475512816333  0.2640282363713693
  0.8379889375079480  0.1615751534500119  0.1351166129161297
  0.8394175007511773  0.1597797791306411  0.3982855346763887
  0.8340174392101233  0.1654563017850716  0.0015733412094166
  0.8416779688846503  0.1553012136208593  0.5227540393048057
  0.8375624256836135  0.1613140528968910  0.2643018005759966
  0.8348430084940477  0.6733935634702184  0.1363743053908938
  0.8383000856200222  0.6757664725985821  0.4002944541037027
  0.8344750852906696  0.6684790023269950  0.0018431862252995
  0.8287372506341060  0.6681976576108173  0.5251704390723956
  0.8345806391689929  0.6717376138387759  0.2631872608886697
  0.2445802087182941  0.7616326166896589  0.5714601290928190
  0.2638130734566222  0.2712688710246764  0.5714001717642141

  0.00000000E+00  0.00000000E+00  0.00000000E+00
  0.00000000E+00  0.00000000E+00  0.00000000E+00
  0.00000000E+00  0.00000000E+00  0.00000000E+00
  0.00000000E+00  0.00000000E+00  0.00000000E+00
  0.00000000E+00  0.00000000E+00  0.00000000E+00
  0.00000000E+00  0.00000000E+00  0.00000000E+00
  0.00000000E+00  0.00000000E+00  0.00000000E+00
  0.00000000E+00  0.00000000E+00  0.00000000E+00
  0.00000000E+00  0.00000000E+00  0.00000000E+00
  0.00000000E+00  0.00000000E+00  0.00000000E+00
  0.00000000E+00  0.00000000E+00  0.00000000E+00
  0.00000000E+00  0.00000000E+00  0.00000000E+00
  0.00000000E+00  0.00000000E+00  0.00000000E+00
  0.00000000E+00  0.00000000E+00  0.00000000E+00
  0.00000000E+00  0.00000000E+00  0.00000000E+00
  0.00000000E+00  0.00000000E+00  0.00000000E+00
  0.00000000E+00  0.00000000E+00  0.00000000E+00
  0.00000000E+00  0.00000000E+00  0.00000000E+00
  0.00000000E+00  0.00000000E+00  0.00000000E+00
  0.00000000E+00  0.00000000E+00  0.00000000E+00
  0.00000000E+00  0.00000000E+00  0.00000000E+00
  0.00000000E+00  0.00000000E+00  0.00000000E+00
  0.00000000E+00  0.00000000E+00  0.00000000E+00
  0.00000000E+00  0.00000000E+00  0.00000000E+00
  0.00000000E+00  0.00000000E+00  0.00000000E+00
  0.00000000E+00  0.00000000E+00  0.00000000E+00
  0.00000000E+00  0.00000000E+00  0.00000000E+00
  0.00000000E+00  0.00000000E+00  0.00000000E+00
  0.00000000E+00  0.00000000E+00  0.00000000E+00
  0.00000000E+00  0.00000000E+00  0.00000000E+00
  0.00000000E+00  0.00000000E+00  0.00000000E+00
  0.00000000E+00  0.00000000E+00  0.00000000E+00
  0.00000000E+00  0.00000000E+00  0.00000000E+00
  0.00000000E+00  0.00000000E+00  0.00000000E+00
  0.00000000E+00  0.00000000E+00  0.00000000E+00
  0.00000000E+00  0.00000000E+00  0.00000000E+00
  0.00000000E+00  0.00000000E+00  0.00000000E+00
  0.00000000E+00  0.00000000E+00  0.00000000E+00
  0.00000000E+00  0.00000000E+00  0.00000000E+00
  0.00000000E+00  0.00000000E+00  0.00000000E+00
  0.00000000E+00  0.00000000E+00  0.00000000E+00
  0.00000000E+00  0.00000000E+00  0.00000000E+00
  0.00000000E+00  0.00000000E+00  0.00000000E+00
  0.00000000E+00  0.00000000E+00  0.00000000E+00
  0.00000000E+00  0.00000000E+00  0.00000000E+00
  0.00000000E+00  0.00000000E+00  0.00000000E+00
  0.00000000E+00  0.00000000E+00  0.00000000E+00
  0.00000000E+00  0.00000000E+00  0.00000000E+00
  0.00000000E+00  0.00000000E+00  0.00000000E+00
  0.00000000E+00  0.00000000E+00  0.00000000E+00
  0.00000000E+00  0.00000000E+00  0.00000000E+00
  0.00000000E+00  0.00000000E+00  0.00000000E+00
  0.00000000E+00  0.00000000E+00  0.00000000E+00
  0.00000000E+00  0.00000000E+00  0.00000000E+00
  0.00000000E+00  0.00000000E+00  0.00000000E+00
  0.00000000E+00  0.00000000E+00  0.00000000E+00
