B2 Mo                                   
   1.0000000000000000     
     6.0798179827987360   -0.0034772404225424    0.0000078307394360
    -3.0429205294180606    5.2634343886756412    0.0000008870665317
     0.0000138193205269    0.0000061563720540    6.2707704729368219
   Mo   V    B 
     4     4    16
Direct
 -0.0003883787936864 -0.0000336279274927  0.0099690683938942
 -0.0003326177728298 -0.0000138408507433  0.5112915361289645
  0.4996958031723248  0.5000001736485160  0.0099944536728629
  0.4996618217211574  0.4999787922610809  0.5112622742669340
  0.9996491787945394  0.4999508444777178  0.0111491381530531
  0.9996242820308815  0.4999744370326139  0.5101119302271403
  0.4996598663478690 -0.0000058337562458  0.0111481439797152
  0.4997275966524813 -0.0000275555449166  0.5101020040026204
  0.1637163884855102  0.3359457110168628  0.2607570590717752
  0.1634958052999896  0.3361734520425833  0.7606768919707874
  0.8356027762106627  0.6640151451951369  0.2607661669357005
  0.8358373033887989  0.6637824041302196  0.7606689701479480
  0.6636911176699916  0.8359455740072486  0.2607617308557618
  0.6634666104362550  0.8361650501698846  0.7606673640728582
  0.3356235349741741  0.1640112452879255  0.2607578971617544
  0.3358623647080713  0.1637891213526610  0.7606728547194149
  0.1684921893158372  0.8311489686026958  0.2607073210488248
  0.1687083423154828  0.8309538298224743  0.7606401042182699
  0.8308317936208482  0.1688196352293247  0.2607102791729246
  0.8306322155495319  0.1690147610432134  0.7606335840775069
  0.6684992979235004  0.3311430676418148  0.2607084130730953
  0.6686972989028760  0.3309551427643392  0.7606335231354111
  0.3307994659524753  0.6688142370847437  0.2607035873790599
  0.3306141778504488  0.6690025445248854  0.7606351036111244

  0.00000000E+00  0.00000000E+00  0.00000000E+00
  0.00000000E+00  0.00000000E+00  0.00000000E+00
  0.00000000E+00  0.00000000E+00  0.00000000E+00
  0.00000000E+00  0.00000000E+00  0.00000000E+00
  0.00000000E+00  0.00000000E+00  0.00000000E+00
  0.00000000E+00  0.00000000E+00  0.00000000E+00
  0.00000000E+00  0.00000000E+00  0.00000000E+00
  0.00000000E+00  0.00000000E+00  0.00000000E+00
  0.00000000E+00  0.00000000E+00  0.00000000E+00
  0.00000000E+00  0.00000000E+00  0.00000000E+00
  0.00000000E+00  0.00000000E+00  0.00000000E+00
  0.00000000E+00  0.00000000E+00  0.00000000E+00
  0.00000000E+00  0.00000000E+00  0.00000000E+00
  0.00000000E+00  0.00000000E+00  0.00000000E+00
  0.00000000E+00  0.00000000E+00  0.00000000E+00
  0.00000000E+00  0.00000000E+00  0.00000000E+00
  0.00000000E+00  0.00000000E+00  0.00000000E+00
  0.00000000E+00  0.00000000E+00  0.00000000E+00
  0.00000000E+00  0.00000000E+00  0.00000000E+00
  0.00000000E+00  0.00000000E+00  0.00000000E+00
  0.00000000E+00  0.00000000E+00  0.00000000E+00
  0.00000000E+00  0.00000000E+00  0.00000000E+00
  0.00000000E+00  0.00000000E+00  0.00000000E+00
  0.00000000E+00  0.00000000E+00  0.00000000E+00
