 2 Mo0.5b2                              
1.0
        6.0780000687         0.0000000000         0.0000000000
       -3.0390007352         5.2637020590         0.0000000000
        0.0000000000         0.0000000000        22.2199993134
   Mo    V    B    H
    8    6   40       1
Cartesian
     3.037010670         5.263597488         4.575437069
     3.037001133         5.263635635        10.707265854
     3.037034035         5.263625622         1.545834541
     3.037009954         5.263633251         7.697793007
     1.517564774         2.631697893         4.575431347
     1.517616034         2.631701708        10.707124710
     1.517599583         2.631717205         1.545884013
     1.517587304         2.631718397         7.697798252
     4.556583405         2.631747961         1.565527916
     4.556611538         2.631744862         7.667852402
    -0.002090931         5.263606071         4.607658863
    -0.001946688         5.263582230        10.873524666
    -0.002047777         5.263539791         1.537603259
    -0.001969337         5.263562202         7.680152416
    -0.010280132         1.759281635        22.158758163
     0.015601397         1.744418025        12.351510048
    -0.041209221         1.777127743         6.104910374
    -0.050160646         1.782160401         3.078967571
    -0.063880622         1.790152192         9.265436172
     3.045361280         3.504208326        22.158826828
     3.019591331         3.519073486        12.351533890
     3.076287270         3.486391544         6.104924679
     3.085139513         3.481207609         3.078974485
     3.098961353         3.473268032         9.265446663
     1.509587049         4.390874863        22.162721634
     1.525549173         4.381664276        12.260617256
     1.494228125         4.399776936         6.125347137
     1.486192226         4.404397011         3.040222883
     1.486631155         4.404192924         9.206137657
     1.525456905         0.872588873        22.162673950
     1.509625793         0.881829858        12.260582924
     1.540792465         0.863739789         6.125373840
     1.548801184         0.859089673         3.040182352
     1.548471689         0.859322488         9.206075668
    -1.512752414         4.379455090        22.183650970
    -1.525641203         4.353814125        12.257228851
    -1.502441645         4.359192848         6.103799820
    -1.499090314         4.359466076         3.072040558
    -1.496252418         4.364278793         9.253776550
     4.547837257         0.883983254        22.183616638
     4.560810089         0.909778476        12.257143021
     4.537470818         0.904262066         6.103832245
     4.534277916         0.903892934         3.072063446
     4.531470299         0.899103880         9.253759384
     3.047353268         1.750302553        22.183662415
     3.063071728         1.774306655        12.257335663
     3.069984913         1.751580358         6.103757858
     3.071227551         1.748682380         3.072087288
     3.068530560         1.743821859         9.253787041
    -0.012233973         3.513152599        22.183589935
    -0.027952075         3.489215374        12.257354736
    -0.034901977         3.511914730         6.103747368
    -0.036340237         3.514885902         3.072112322
    -0.033617496         3.519781113         9.253828049
	-1.025641203         4.053814125        13.257228851
