MoB2                                    
   1.0000000000000000     
     8.6453199387000002    0.0000000000000000    0.0000000000000000
    -2.1414606584000002    5.6957327634999997    0.0000000000000000
    -0.2384319305000000   -9.8409511943000005   23.9952660313000017
   Mo   V    B 
    10     4    32
Selective dynamics
Direct
  0.9966269356629389  0.4965651397888312  0.5000469921100592   T   T   T
  0.5000000420406607  0.0000000106198357  0.3333333328985262   F   F   F
  0.5017051209626644  0.9994197127925623  0.4989091037652117   T   T   T
  0.2499999645194322  0.0000000211648654  0.4166666452857157   F   F   F
  0.2433809034328202  0.9903686101990791  0.5790304407097986   T   T   T
  0.2499999859959132  0.4999999541410034  0.4166666452857157   F   F   F
  0.2419109411056195  0.4909177949978827  0.5795235166411657   T   T   T
  0.7429525001256535  0.9902675813518265  0.5793384895582162   T   T   T
  0.7499999895411875  0.4999999541410034  0.4166666452857157   F   F   F
  0.7433504231440767  0.4910215373090350  0.5793074815416825   T   T   T
  0.0000000384953864  0.0000000106198357  0.3333333328985262   F   F   F
  0.9976097676478325  0.0010857710489048  0.4988688410925506   T   T   T
  0.4999999478476198  0.4999999435959737  0.3333333328985262   F   F   F
  0.4970472499725858  0.4961766790734470  0.4978373790308350   T   T   T
  0.4583333285167654  0.3333333147988853  0.4027777807252946   F   F   F
  0.4579118273419046  0.3579135667484236  0.5855621644826177   T   T   T
  0.4583333499932465  0.8333332477750233  0.4027777807252946   F   F   F
  0.4587358270691082  0.8587319589620673  0.5860041543631339   T   T   T
  0.9583334477315546  0.3333333147988853  0.4027777807252946   F   F   F
  0.9567593869392107  0.3536730352384948  0.5835239698278875   T   T   T
  0.9583333535385137  0.8333332477750233  0.4027777807252946   F   F   F
  0.9582358780466179  0.8617664318567525  0.5882813571546167   T   T   T
  0.2083333666650589  0.3333333253439150  0.4861110931124770   F   F   F
  0.2083333835076218  0.3333332322489824  0.3194444266632175   F   F   F
  0.2046428812134732  0.8378757497600363  0.4882271710523221   T   T   T
  0.2083333328035835  0.8333333407951500  0.3194444266632175   F   F   F
  0.7080669580664657  0.3306145111169247  0.4859658215297620   T   T   T
  0.7083333870528890  0.3333332322489824  0.3194444266632175   F   F   F
  0.7118878972782848  0.8376462469071395  0.4854098385159814   T   T   T
  0.7083333363488507  0.8333333407951500  0.3194444266632175   F   F   F
  0.0416666409836779  0.1666667325118567  0.4305555515210244   F   F   F
  0.0398716077065707  0.1678598379665491  0.5978551059864012   T   T   T
  0.0416666624601589  0.6666666654880018  0.4305555515210244   F   F   F
  0.0400224191869647  0.6692935106569322  0.6001979194471474   T   T   T
  0.5416666445289522  0.1666667325118567  0.4305555515210244   F   F   F
  0.5407264831948989  0.1711529645909027  0.5999775197002697   T   T   T
  0.5416666660054332  0.6666666654880018  0.4305555515210244   F   F   F
  0.5402329822045923  0.6673480167466073  0.5980401915536233   T   T   T
  0.2916666995198085  0.1666666499619538  0.3472221974589473   F   F   F
  0.2945662514939229  0.1732192865646305  0.5151307756630926   T   T   T
  0.2916667209962895  0.6666665829380918  0.3472221974589473   F   F   F
  0.2976680819143966  0.6700012174494971  0.5152231960274671   T   T   T
  0.7916664717260460  0.1666666499619538  0.3472221974589473   F   F   F
  0.7950458031569014  0.1642563480164836  0.5123132448125280   T   T   T
  0.7916664932025199  0.6666665829380918  0.3472221974589473   F   F   F
  0.7917916751348466  0.6693971837235718  0.5141378430505410   T   T   T

  0.00000000E+00  0.00000000E+00  0.00000000E+00
  0.00000000E+00  0.00000000E+00  0.00000000E+00
  0.00000000E+00  0.00000000E+00  0.00000000E+00
  0.00000000E+00  0.00000000E+00  0.00000000E+00
  0.00000000E+00  0.00000000E+00  0.00000000E+00
  0.00000000E+00  0.00000000E+00  0.00000000E+00
  0.00000000E+00  0.00000000E+00  0.00000000E+00
  0.00000000E+00  0.00000000E+00  0.00000000E+00
  0.00000000E+00  0.00000000E+00  0.00000000E+00
  0.00000000E+00  0.00000000E+00  0.00000000E+00
  0.00000000E+00  0.00000000E+00  0.00000000E+00
  0.00000000E+00  0.00000000E+00  0.00000000E+00
  0.00000000E+00  0.00000000E+00  0.00000000E+00
  0.00000000E+00  0.00000000E+00  0.00000000E+00
  0.00000000E+00  0.00000000E+00  0.00000000E+00
  0.00000000E+00  0.00000000E+00  0.00000000E+00
  0.00000000E+00  0.00000000E+00  0.00000000E+00
  0.00000000E+00  0.00000000E+00  0.00000000E+00
  0.00000000E+00  0.00000000E+00  0.00000000E+00
  0.00000000E+00  0.00000000E+00  0.00000000E+00
  0.00000000E+00  0.00000000E+00  0.00000000E+00
  0.00000000E+00  0.00000000E+00  0.00000000E+00
  0.00000000E+00  0.00000000E+00  0.00000000E+00
  0.00000000E+00  0.00000000E+00  0.00000000E+00
  0.00000000E+00  0.00000000E+00  0.00000000E+00
  0.00000000E+00  0.00000000E+00  0.00000000E+00
  0.00000000E+00  0.00000000E+00  0.00000000E+00
  0.00000000E+00  0.00000000E+00  0.00000000E+00
  0.00000000E+00  0.00000000E+00  0.00000000E+00
  0.00000000E+00  0.00000000E+00  0.00000000E+00
  0.00000000E+00  0.00000000E+00  0.00000000E+00
  0.00000000E+00  0.00000000E+00  0.00000000E+00
  0.00000000E+00  0.00000000E+00  0.00000000E+00
  0.00000000E+00  0.00000000E+00  0.00000000E+00
  0.00000000E+00  0.00000000E+00  0.00000000E+00
  0.00000000E+00  0.00000000E+00  0.00000000E+00
  0.00000000E+00  0.00000000E+00  0.00000000E+00
  0.00000000E+00  0.00000000E+00  0.00000000E+00
  0.00000000E+00  0.00000000E+00  0.00000000E+00
  0.00000000E+00  0.00000000E+00  0.00000000E+00
  0.00000000E+00  0.00000000E+00  0.00000000E+00
  0.00000000E+00  0.00000000E+00  0.00000000E+00
  0.00000000E+00  0.00000000E+00  0.00000000E+00
  0.00000000E+00  0.00000000E+00  0.00000000E+00
  0.00000000E+00  0.00000000E+00  0.00000000E+00
  0.00000000E+00  0.00000000E+00  0.00000000E+00
