B2 Mo                                   
1.0
        6.0780000687         0.0000000000         0.0000000000
       -3.0390007352         5.2637020590         0.0000000000
        0.0000000000         0.0000000000        18.3299999237
   Mo    V    B    H
    6    1   16       1
Cartesian
     0.000000000         0.000000000         7.708949089
    -1.519500375         2.631850958        10.673140526
    -1.519500375         2.631850958         7.712216377
     3.039000034         0.000000000        10.673140526
     3.039000034         0.000000000         7.712216377
     1.519500136         2.631850958        10.702445030
     1.519500136         2.631850958         7.759805202
    -0.002958536         1.738868833        12.243101120
     0.007061362         1.739402533         9.114778519
    -1.522108555         4.387923241        12.256391525
    -1.548539400         4.403183460         9.137258530
     3.041959047         1.752858400        12.219902039
     3.025707006         1.762241602         9.053480148
     1.531614780         4.396829128        12.243101120
     1.536162138         4.387885094         9.114778519
     1.507384300         0.866872787        12.243101120
     1.502836466         0.875817120         9.114778519
    -0.002959251         3.510842323        12.219902039
     0.013292789         3.501459360         9.053480148
     4.561106682         0.875778496        12.256391525
     4.587537289         0.860518634         9.137258530
     3.041957855         3.524831772        12.243101120
     3.031937599         3.524298429         9.114778519
	-0.522108555         4.087923241        13.256391525
	 
