B2 Mo                                   
   1.0000000000000000     
     6.0525516193735642    0.0004742213082970    0.0000000000000000
    -3.0258658199339123    5.2419001678011270    0.0000000000000000
     0.0000000000000000    0.0000000000000000    6.1609307906380169
   V    Mo   B 
     6     2    16
Direct
  0.0000000000000000  0.0000000000000000  0.5000000000409131
  0.9999999919906983  0.4999999864164053  0.0000000000000000
  0.9999999919906983  0.4999999864164053  0.5000000000409131
  0.4999999999424176  0.0000000000000000  0.0000000000000000
  0.4999999999424176  0.0000000000000000  0.5000000000409131
  0.4999999920976350  0.4999999864164053  0.0000000000000000
  0.0000000000000000  0.0000000000000000  0.0000000000000000
  0.4999999920976350  0.4999999864164053  0.5000000000409131
  0.1652377804882903  0.3347622279095859  0.2499999999386233
  0.1652377804882903  0.3347622279095859  0.7499999805032758
  0.1679543280031410  0.8320456392230255  0.2548025238952647
  0.1679543280031410  0.8320456392230255  0.7451974565466344
  0.6679543555336735  0.3320456528066202  0.2451974759819819
  0.6679543555336735  0.3320456528066202  0.7548025044599171
  0.6652377528425930  0.8347622143259912  0.2499999999386233
  0.6652377528425930  0.8347622143259912  0.7499999805032758
  0.3347621920305386  0.1652377585068194  0.2499999999386233
  0.3347621920305386  0.1652377585068194  0.7499999805032758
  0.3320456058894052  0.6679542748108602  0.2451974759819819
  0.3320456058894052  0.6679542748108602  0.7548025044599171
  0.8320455383902257  0.1679543336097851  0.2548025238952647
  0.8320455383902257  0.1679543336097851  0.7451974565466344
  0.8347621417771691  0.6652376997078946  0.2499999999386233
  0.8347621417771691  0.6652376997078946  0.7499999805032758

  0.00000000E+00  0.00000000E+00  0.00000000E+00
  0.00000000E+00  0.00000000E+00  0.00000000E+00
  0.00000000E+00  0.00000000E+00  0.00000000E+00
  0.00000000E+00  0.00000000E+00  0.00000000E+00
  0.00000000E+00  0.00000000E+00  0.00000000E+00
  0.00000000E+00  0.00000000E+00  0.00000000E+00
  0.00000000E+00  0.00000000E+00  0.00000000E+00
  0.00000000E+00  0.00000000E+00  0.00000000E+00
  0.00000000E+00  0.00000000E+00  0.00000000E+00
  0.00000000E+00  0.00000000E+00  0.00000000E+00
  0.00000000E+00  0.00000000E+00  0.00000000E+00
  0.00000000E+00  0.00000000E+00  0.00000000E+00
  0.00000000E+00  0.00000000E+00  0.00000000E+00
  0.00000000E+00  0.00000000E+00  0.00000000E+00
  0.00000000E+00  0.00000000E+00  0.00000000E+00
  0.00000000E+00  0.00000000E+00  0.00000000E+00
  0.00000000E+00  0.00000000E+00  0.00000000E+00
  0.00000000E+00  0.00000000E+00  0.00000000E+00
  0.00000000E+00  0.00000000E+00  0.00000000E+00
  0.00000000E+00  0.00000000E+00  0.00000000E+00
  0.00000000E+00  0.00000000E+00  0.00000000E+00
  0.00000000E+00  0.00000000E+00  0.00000000E+00
  0.00000000E+00  0.00000000E+00  0.00000000E+00
  0.00000000E+00  0.00000000E+00  0.00000000E+00
