MoB2                                    
1.0
        8.6453199387         0.0000000000         0.0000000000
       -2.1414606584         5.6957327635         0.0000000000
       -0.2384319305        -9.8409511943        23.9952660313
   Mo    V    B    H
   10    4   32      2
Selective dynamics
Cartesian
     7.433557034        -2.092635393        11.998760223   F F F 
     4.243183136        -3.280317068         7.998422146   F F F 
     2.078227520         0.782687187        11.971456528  F F F 
     2.061983109        -4.100396156         9.998026848   F F F 
    -0.154788941        -0.057335377        13.893989563  F F F 
     0.991252899        -1.252530098         9.998026848   F F F 
     0.901939392        -2.906925917        13.905820847  F F F 
     4.164310932        -0.060942173        13.901381493  F F F 
     5.313912868        -1.252530098         9.998026848   F F F 
     5.236873627        -2.904209375        13.900637627  F F F 
    -0.079477310        -3.280317068         7.998422146   F F F 
     8.503384590        -4.903159618        11.970490456  F F F 
     3.172451973        -0.432451010         7.998422146   F F F 
     3.115889311        -2.073103428        11.945739746  F F F 
     3.152583122        -2.065139055         9.664760590   F F F 
     3.052719593        -3.723908424        14.050720215  F F F 
     2.081852913         0.782726765         9.664760590   F F F 
     1.987255335        -0.875730515        14.061325073  F F F 
     7.475244045        -2.065139055         9.664760590   F F F 
     7.374983788        -3.728003979        14.001812935  F F F 
     6.404513359         0.782726765         9.664760590   F F F 
     6.298552036        -0.880856514        14.115966797  F F F 
     0.971384227        -2.885217905        11.664364815  F F F 
     1.011123061        -1.245060086         7.665153980   F F F 
    -0.141483665        -0.032303333        11.715140343  F F F 
    -0.059608057         1.602806807         7.665153980   F F F 
     5.297597408        -2.899273872        11.660879135  F F F 
     5.333783150        -1.245060086         7.665153980   F F F 
     4.244975090        -0.005885124        11.647538185  F F F 
     4.263051987         1.602806807         7.665153980   F F F 
    -0.099347003        -3.287787199        10.331295013  F F F 
    -0.157310173        -4.927377701        14.345691681  F F F 
    -1.170076966        -0.439921141        10.331295013  F F F 
    -1.230365515        -2.094401121        14.401908875  F F F 
     4.223312855        -3.287787199        10.331295013  F F F 
     4.165182114        -4.929507732        14.396619797  F F F 
     3.152583122        -0.439921141        10.331295013  F F F 
     3.098795414        -2.084248066        14.350132942  F F F 
     2.081852913        -2.467708111         8.331688881   F F F 
     2.052853346        -4.082765579        12.360699654  F F F 
     1.011123061         0.380157709         8.331688881   F F F 
     1.015808940        -1.254138470        12.362917900  F F F 
     6.404510498        -2.467708111         8.331688881   F F F 
     6.399525166        -4.106089115        12.293092728  F F F 
     5.333780766         0.380157709         8.331688881   F F F 
     5.289217949        -1.246898174        12.336874962  F F F 
	 4.971188068        -4.663479328        15.397500992  F F T
	 0.618897438        -4.609715462        15.362719536  F F T
