MoB2                                    
1.0
       10.5395298004         0.0000000000         0.0000000000
        0.0000000000         6.1412000656         0.0000000000
        0.0000000000         0.0000000000        24.1275005341
   Mo    V    B    H
   15    6   48      4
Selective dynamics
Cartesian
     0.000000000         0.000000000         3.042500257    F   F   F
    10.532348633         3.070743799         6.065811634   F   F   F
     5.269764900         0.000000000         0.000000000    F   F   F
     5.266255379         0.008435836         6.113477230    F   F   F
     5.269764900         3.070600033         3.042500257    F   F   F
     2.634881973         0.000000000         1.521250129    F   F   F
     2.634881973         0.000000000         4.563750267    F   F   F
     2.641368151         0.001471278         7.459559441    F   F   F
     2.634881973         3.070600033         1.521250129    F   F   F
     2.636459589         3.073626041         7.505854130    F   F   F
     7.904646873         0.000000000         4.563750267    F   F   F
     7.906753063         0.001112495         7.488438129    F   F   F
     7.904646873         3.070600033         1.521250129    F   F   F
     7.904646873         3.070600033         4.563750267    F   F   F
     7.893743992         3.070603609         7.498851776    F   F   F
     0.000000000         0.000000000         0.000000000    F   F   F
     5.269764900         3.070600033         0.000000000    F   F   F
     0.000000000         3.070600033         3.042500257    F   F   F
     5.269764900         0.000000000         3.042500257    F   F   F
    10.534417152         6.140877724         6.080663204   F   F   F
     5.283810139         3.076955557         6.038317680    F   F   F
     0.878293991         1.535300016         1.521250129    F   F   F
     0.878293991         1.535300016         4.563750267    F   F   F
     0.859393537         1.477021694         7.653933525    F   F   F
     0.878293991         4.605899811         1.521250129    F   F   F
     0.878293991         4.605899811         4.563750267    F   F   F
     0.860343218         4.665330887         7.652416229    F   F   F
     6.148058891         1.535300016         1.521250129    F   F   F
     6.148058891         1.535300016         4.563750267    F   F   F
     6.104391575         1.589301944         7.701361656    F   F   F
     6.148058891         4.605899811         1.521250129    F   F   F
     6.148058891         4.605899811         4.563750267    F   F   F
     6.103468418         4.558601379         7.699335575    F   F   F
     3.513176918         1.535300016         0.000000000    F   F   F
     3.513176918         1.535300016         3.042500257    F   F   F
     3.512132883         1.637469530         6.068983555    F   F   F
     3.513176918         4.605899811         0.000000000    F   F   F
     3.513176918         4.605899811         3.042500257    F   F   F
     3.514585972         4.514236927         6.066712856    F   F   F
     8.782941818         1.535300016         0.000000000    F   F   F
     8.782941818         1.535300016         3.042500257    F   F   F
     8.812300682         1.511618257         6.143218517    F   F   F
     8.782941818         4.605899811         0.000000000    F   F   F
     8.782941818         4.605899811         3.042500257    F   F   F
     8.811746597         4.629751682         6.143321514    F   F   F
     4.391470909         1.535300016         1.521250129    F   F   F
     4.374211788         1.592949629         4.569174290    F   F   F
     4.405595779         1.580117345         7.654973507    F   F   F
     4.391470909         4.605899811         1.521250129    F   F   F
     4.391470909         4.605899811         4.563750267    F   F   F
     4.405820847         4.565292358         7.654428482    F   F   F
     9.661235809         1.535300016         1.521250129    F   F   F
     9.661235809         1.535300016         4.563750267    F   F   F
     9.701625824         1.472444057         7.692382336    F   F   F
     9.703132629         4.566768646         1.431873679    F   F   F
     9.661235809         4.605899811         4.563750267    F   F   F
     9.702054977         4.669169426         7.690958977    F   F   F
     1.756587982         1.535300016         0.000000000    F   F   F
     1.756587982         1.535300016         3.042500257    F   F   F
     1.752961278         1.570335031         6.078997612    F   F   F
     1.756587982         4.605899811         0.000000000    F   F   F
     1.756587982         4.605899811         3.042500257    F   F   F
     1.755433559         4.571445942         6.076955795    F   F   F
     7.026352882         1.535300016         0.000000000    F   F   F
     7.026352882         1.535300016         3.042500257    F   F   F
     6.990316391         1.565206766         6.143764973    F   F   F
     7.026352882         4.605899811         0.000000000    F   F   F
     7.026352882         4.605899811         3.042500257    F   F   F
     6.990523338         4.578963280         6.143515110    F   F   F
     6.803051472         4.620416164         8.771850586    T   F  T 
	 1.592481472         4.620416164         8.771850586    T   F  T 
	 6.803051472         1.641966164         8.771850586    T   F  T 
	 1.592481472         1.641966164         8.771850586    T   F  T 
	 
