B2 Mo                                   
   1.0000000000000000     
     5.9925122980901024    0.0000000113825012    0.0000000000000000
    -2.9962568301799810    5.1896674893240418   -0.0000000000000000
     0.0000000000000000   -0.0000000000000000    6.0531367688072093
       B 
      16
Direct
  0.1666666689851724  0.3333333394127038  0.2499999999386233
  0.1666666689851724  0.3333333394127038  0.7499999805032758
  0.1666666413970574  0.8333333258291091  0.2499999999386233
  0.1666666413970574  0.8333333258291091  0.7499999805032758
  0.6666666689275900  0.3333333394127038  0.2499999999386233
  0.6666666689275900  0.3333333394127038  0.7499999805032758
  0.6666666413394751  0.8333333258291091  0.2499999999386233
  0.6666666413394751  0.8333333258291091  0.7499999805032758
  0.3333333035336565  0.1666666470037015  0.2499999999386233
  0.3333333035336565  0.1666666470037015  0.7499999805032758
  0.3333332924954888  0.6666665882047766  0.2499999999386233
  0.3333332924954888  0.6666665882047766  0.7499999805032758
  0.8333332249963092  0.1666666470037015  0.2499999999386233
  0.8333332249963092  0.1666666470037015  0.7499999805032758
  0.8333332532802871  0.6666665882047766  0.2499999999386233
  0.8333332532802871  0.6666665882047766  0.7499999805032758

  