B2 Mo                                   
   1.0000000000000000     
     6.0780000686999998    0.0000000000000000    0.0000000000000000
    -3.0390007352000001    5.2637020589999999    0.0000000000000000
     0.0000000000000000    0.0000000000000000   22.3299999237000009
   Mo   V    B    H 
    12     2    40     1
Direct
  0.0003957095080795  0.9998007722752990  0.0635156742235939
  0.0022009049670690  0.9996051585234662  0.3444470897218701
  0.0004871517493089  0.5002104875937706  0.2029385758610556
  0.0003394862404371  0.4985876109182265  0.4844088711976894
  0.0002767335453952  0.5001096431947113  0.0638149906800654
  0.9997849023394095  0.4996396751292027  0.3447813565482578
  0.5003249176661462 -0.0000875138672034  0.2029245310186406
  0.5042696412740844  0.0025034917984465  0.4845010692549873
  0.5001273089394728  0.0000163194815948  0.0638202396763555
  0.5024910981060441  0.0023700975289365  0.3447741542531519
  0.5012869507344649  0.4994366976107315  0.2029983222811407
  0.5069622185829440  0.4957415676722713  0.4814649222742818
  0.5000401757754727  0.5001363129711667  0.0638529759252666
  0.5015181623444053  0.5003215288270613  0.3440257747438123
  0.1683347949545040  0.3341909714311219  0.9908850248311680
  0.1705652277107418  0.3353257959561573  0.5543864858675028
  0.1670565440146347  0.3299389375724003  0.2729216645889266
  0.1661583542137818  0.3290768301129143  0.1335217002594709
  0.1670056206859994  0.3281842175435288  0.4170839429260024
  0.1667075554682947  0.8334364821645249  0.9898062317975576
  0.1636561586830495  0.8395113242476541  0.5563486369792023
  0.1645309927074324  0.8366687090863623  0.2718103519727031
  0.1633293235485111  0.8370524573417903  0.1348269086162442
  0.1662253348171522  0.8362858854829895  0.4180925042226905
  0.6657979737545964  0.3343367527239261  0.9908173217869023
  0.6678028342402816  0.3355818674388096  0.5536666271153321
  0.6662527427460124  0.3350643739093391  0.2746236588380092
  0.6653617837254246  0.3350169750804423  0.1309738059958631
  0.6664953761674025  0.3358526984614630  0.4130705128098557
  0.6659584331286902  0.8318121394635711  0.9908901389305331
  0.6679049573387504  0.8326911420103152  0.5543557242834706
  0.6713720074230272  0.8341840592846191  0.2729159028248739
  0.6712555083854220  0.8341914969466196  0.1334911196142230
  0.6742158042188450  0.8354949585645559  0.4170685931527309
  0.3341047822444295  0.1684434668384670  0.9908436415006333
  0.3323830372428249  0.1694296039910291  0.5541975250124168
  0.3308147974851540  0.1663899121234858  0.2728702314575451
  0.3291486629825098  0.1659478324758637  0.1335409772517646
  0.3282883953678531  0.1638465761800756  0.4167217487475753
  0.3342277120454324  0.6659372900583320  0.9908413530653727
  0.3326652797084445  0.6704208620160182  0.5588074993114254
  0.3359231982410261  0.6654061358545504  0.2748138586924991
  0.3350933299428862  0.6652446848993742  0.1311886848013621
  0.3376336340058456  0.6648936293152331  0.4131578582834152
  0.8333713665970364  0.1667631695194968  0.9897933344526618
  0.8413094263892572  0.1619539512630854  0.5534445014352619
  0.8374176899098370  0.1638004580186951  0.2717194165588841
  0.8372287073590232  0.1631649337403611  0.1347558140443899
  0.8398498303419933  0.1625448315497335  0.4183656842076134
  0.8316977681825609  0.6660357590281770  0.9908454865502410
  0.8338898929129231  0.6710402155218683  0.5540866404464718
  0.8348290881685866  0.6704577294625558  0.2728801514631269
  0.8344195145148362  0.6712034148986087  0.1335138757459368
  0.8386190001605299  0.6741667657822461  0.4167127934677008
  0.2431456644409254  0.7570964509135808  0.6028699558775034

  0.00000000E+00  0.00000000E+00  0.00000000E+00
  0.00000000E+00  0.00000000E+00  0.00000000E+00
  0.00000000E+00  0.00000000E+00  0.00000000E+00
  0.00000000E+00  0.00000000E+00  0.00000000E+00
  0.00000000E+00  0.00000000E+00  0.00000000E+00
  0.00000000E+00  0.00000000E+00  0.00000000E+00
  0.00000000E+00  0.00000000E+00  0.00000000E+00
  0.00000000E+00  0.00000000E+00  0.00000000E+00
  0.00000000E+00  0.00000000E+00  0.00000000E+00
  0.00000000E+00  0.00000000E+00  0.00000000E+00
  0.00000000E+00  0.00000000E+00  0.00000000E+00
  0.00000000E+00  0.00000000E+00  0.00000000E+00
  0.00000000E+00  0.00000000E+00  0.00000000E+00
  0.00000000E+00  0.00000000E+00  0.00000000E+00
  0.00000000E+00  0.00000000E+00  0.00000000E+00
  0.00000000E+00  0.00000000E+00  0.00000000E+00
  0.00000000E+00  0.00000000E+00  0.00000000E+00
  0.00000000E+00  0.00000000E+00  0.00000000E+00
  0.00000000E+00  0.00000000E+00  0.00000000E+00
  0.00000000E+00  0.00000000E+00  0.00000000E+00
  0.00000000E+00  0.00000000E+00  0.00000000E+00
  0.00000000E+00  0.00000000E+00  0.00000000E+00
  0.00000000E+00  0.00000000E+00  0.00000000E+00
  0.00000000E+00  0.00000000E+00  0.00000000E+00
  0.00000000E+00  0.00000000E+00  0.00000000E+00
  0.00000000E+00  0.00000000E+00  0.00000000E+00
  0.00000000E+00  0.00000000E+00  0.00000000E+00
  0.00000000E+00  0.00000000E+00  0.00000000E+00
  0.00000000E+00  0.00000000E+00  0.00000000E+00
  0.00000000E+00  0.00000000E+00  0.00000000E+00
  0.00000000E+00  0.00000000E+00  0.00000000E+00
  0.00000000E+00  0.00000000E+00  0.00000000E+00
  0.00000000E+00  0.00000000E+00  0.00000000E+00
  0.00000000E+00  0.00000000E+00  0.00000000E+00
  0.00000000E+00  0.00000000E+00  0.00000000E+00
  0.00000000E+00  0.00000000E+00  0.00000000E+00
  0.00000000E+00  0.00000000E+00  0.00000000E+00
  0.00000000E+00  0.00000000E+00  0.00000000E+00
  0.00000000E+00  0.00000000E+00  0.00000000E+00
  0.00000000E+00  0.00000000E+00  0.00000000E+00
  0.00000000E+00  0.00000000E+00  0.00000000E+00
  0.00000000E+00  0.00000000E+00  0.00000000E+00
  0.00000000E+00  0.00000000E+00  0.00000000E+00
  0.00000000E+00  0.00000000E+00  0.00000000E+00
  0.00000000E+00  0.00000000E+00  0.00000000E+00
  0.00000000E+00  0.00000000E+00  0.00000000E+00
  0.00000000E+00  0.00000000E+00  0.00000000E+00
  0.00000000E+00  0.00000000E+00  0.00000000E+00
  0.00000000E+00  0.00000000E+00  0.00000000E+00
  0.00000000E+00  0.00000000E+00  0.00000000E+00
  0.00000000E+00  0.00000000E+00  0.00000000E+00
  0.00000000E+00  0.00000000E+00  0.00000000E+00
  0.00000000E+00  0.00000000E+00  0.00000000E+00
  0.00000000E+00  0.00000000E+00  0.00000000E+00
  0.00000000E+00  0.00000000E+00  0.00000000E+00
