 2 Mo0.5b2                              
   1.0000000000000000     
     6.0780000686999998    0.0000000000000000    0.0000000000000000
    -3.0390007352000001    5.2637020589999999    0.0000000000000000
     0.0000000000000000    0.0000000000000000   18.3299999237000009
   Mo   V    B 
     4     3    16
Direct
 -0.0003058503960172 -0.0000158935719308  0.2587441345100585
 -0.0003160221030184 -0.0000273378496297  0.4177923568896019
  0.4996660094132317  0.4999759163232945  0.2587450346977296
  0.4996846628988640  0.4999785418337259  0.4177918459249125
  0.9996707581207069  0.4999850520986875  0.4142282158075079
  0.4997100556942860 -0.0000236628723139  0.2609146039974549
  0.4996771206569646 -0.0000159707492159  0.4189673972954687
  0.1607155451813824  0.3390041022401744  0.3289602968652878
  0.1659530294848943  0.3336935159483911  0.5037457842643709
  0.8386942661896479  0.6609707474369990  0.3289449121365849
  0.8333850592881683  0.6662819244879418  0.5037514893694445
  0.6634005055121203  0.8362655433821818  0.3343220959696364
  0.6654769347249122  0.8341750011394981  0.5038242693240844
  0.3359789660102119  0.1636899597048940  0.3343194688660753
  0.3338550383290131  0.1657926772708068  0.5038271946409467
  0.1661292453102505  0.8268144686604953  0.3302925648629943
  0.1673894145455862  0.8323797437698290  0.5023963310656491
  0.8332250486040933  0.1731418469144978  0.3303014701353121
  0.8319393588769681  0.1675805250640625  0.5023929329824929
  0.6728597251877038  0.3335166965209688  0.3302942843497671
  0.6672634046936547  0.3322616780233879  0.5023945412786387
  0.3265166226268891  0.6664038156288485  0.3303006180465266
  0.3320636027029664  0.6676992808822302  0.5023914025365847

  0.00000000E+00  0.00000000E+00  0.00000000E+00
  0.00000000E+00  0.00000000E+00  0.00000000E+00
  0.00000000E+00  0.00000000E+00  0.00000000E+00
  0.00000000E+00  0.00000000E+00  0.00000000E+00
  0.00000000E+00  0.00000000E+00  0.00000000E+00
  0.00000000E+00  0.00000000E+00  0.00000000E+00
  0.00000000E+00  0.00000000E+00  0.00000000E+00
  0.00000000E+00  0.00000000E+00  0.00000000E+00
  0.00000000E+00  0.00000000E+00  0.00000000E+00
  0.00000000E+00  0.00000000E+00  0.00000000E+00
  0.00000000E+00  0.00000000E+00  0.00000000E+00
  0.00000000E+00  0.00000000E+00  0.00000000E+00
  0.00000000E+00  0.00000000E+00  0.00000000E+00
  0.00000000E+00  0.00000000E+00  0.00000000E+00
  0.00000000E+00  0.00000000E+00  0.00000000E+00
  0.00000000E+00  0.00000000E+00  0.00000000E+00
  0.00000000E+00  0.00000000E+00  0.00000000E+00
  0.00000000E+00  0.00000000E+00  0.00000000E+00
  0.00000000E+00  0.00000000E+00  0.00000000E+00
  0.00000000E+00  0.00000000E+00  0.00000000E+00
  0.00000000E+00  0.00000000E+00  0.00000000E+00
  0.00000000E+00  0.00000000E+00  0.00000000E+00
  0.00000000E+00  0.00000000E+00  0.00000000E+00
