B2 Mo                                   
   1.0000000000000000     
     6.0715007781999999    0.0000000000000000    0.0000000000000000
    -3.0336328745999999    5.2592958921999999    0.0000000000000000
     0.0000000000000000    0.0000000000000000   25.8633270264000004
   Mo   V    B    H 
    12     4    34     3
Direct
 -0.0003648686091538 -0.0013377276475199  0.0679913931483717
 -0.0009762796030718 -0.0042903853570466  0.3087352665351066
  0.0003564374950130  0.5045760018949024  0.1867658122515941
  0.0080952943990199  0.5152594906766249  0.4351679511290386
  0.0003533523601949  0.4991602752296590  0.0647055782218218
  0.0013041724629107  0.4885837226951509  0.3073646217846361
  0.5039431941684296 -0.0018517343014028  0.1867814258446799
  0.4983888273622377 -0.0115024861112860  0.4348667132548540
  0.5001941722461852 -0.0001333061143794  0.0646996949934266
  0.4948083132411701  0.0040161440006135  0.3073642040129397
  0.4997497667374862  0.4978724888355190  0.1860304128897799
  0.4866975995329037  0.4851862103341937  0.4313162531052527
  0.0033061973971082  0.0036893784216434  0.1857883203348311
  0.0184566049331601  0.0163163104888594  0.4314187155050787
  0.5010923274039569  0.5007068061514400  0.0682981718996666
  0.5024555136226421  0.5052723260313368  0.3075290804722057
  0.1684947550703935  0.3308313685488891  0.2465912101425521
  0.1704628717526917  0.3330856534647166  0.4965488499563442
  0.1667644771292592  0.3309297047223825  0.1224103685975309
  0.1671235383985567  0.3325512384814927  0.3709276530048887
  0.1653956097758194  0.8346608095975856  0.2459982976958409
  0.1676357164598911  0.8338784545061262  0.4985300144812885
  0.1664695518063151  0.8342310871659512  0.1227299359928153
  0.1669566956733198  0.8343021846477702  0.3723923564207325
  0.6614259954236038  0.3375190309452321  0.0161893128421332
  0.6718146850285205  0.3355521878984280  0.4983584433669903
  0.6655189457051497  0.3347183966220689  0.2483387769206268
  0.6658167067002903  0.3344437347553370  0.1241208885685441
  0.6674583147713343  0.3342699413557781  0.3720239614603817
  0.6689374922366966  0.8312804092050362  0.2471664302738557
  0.6725847447257871  0.8328278570207782  0.4942361517960658
  0.6693320865814857  0.8335700105766999  0.1224709954889981
  0.6689335956726538  0.8330371251565707  0.3726504298716448
  0.3317610417559788  0.1672500406683493  0.2466618521976797
  0.3349128967302349  0.1693958862601558  0.4966812817738313
  0.3316492353518417  0.1660821230983263  0.1224034681002111
  0.3348717263478947  0.1664409157134170  0.3708699545259959
  0.3384549716238499  0.6605978842474651  0.0162066465716243
  0.3377785048506065  0.6708756122642378  0.4995945910968104
  0.3355076452247691  0.6645881881630036  0.2484933508142139
  0.3351927054793299  0.6650751688871074  0.1241277754649788
  0.3360514739911423  0.6653857481655983  0.3708999094091530
  0.8357449679578359  0.1641571060263422  0.2456861801077346
  0.8347975148144013  0.1662195156492838  0.4968495163269075
  0.8349344030853046  0.1657173733690802  0.1227739543951316
  0.8359526355301636  0.1659490819517683  0.3737542449427297
  0.8323658540536011  0.6676797037958336  0.2472289385869871
  0.8340806961705376  0.6703534146675008  0.4943571639797467
  0.8342966716371082  0.6686245826438411  0.1224285872099595
  0.8343637473894253  0.6669227610278486  0.3726322410485097
  0.2522344215172808  0.7546698706620787  0.5388392202957755
  0.2536643400729979  0.2534340989459256  0.5367709501289505
  0.7545714155100246  0.2478839298152682  0.5373384708339694

  0.00000000E+00  0.00000000E+00  0.00000000E+00
  0.00000000E+00  0.00000000E+00  0.00000000E+00
  0.00000000E+00  0.00000000E+00  0.00000000E+00
  0.00000000E+00  0.00000000E+00  0.00000000E+00
  0.00000000E+00  0.00000000E+00  0.00000000E+00
  0.00000000E+00  0.00000000E+00  0.00000000E+00
  0.00000000E+00  0.00000000E+00  0.00000000E+00
  0.00000000E+00  0.00000000E+00  0.00000000E+00
  0.00000000E+00  0.00000000E+00  0.00000000E+00
  0.00000000E+00  0.00000000E+00  0.00000000E+00
  0.00000000E+00  0.00000000E+00  0.00000000E+00
  0.00000000E+00  0.00000000E+00  0.00000000E+00
  0.00000000E+00  0.00000000E+00  0.00000000E+00
  0.00000000E+00  0.00000000E+00  0.00000000E+00
  0.00000000E+00  0.00000000E+00  0.00000000E+00
  0.00000000E+00  0.00000000E+00  0.00000000E+00
  0.00000000E+00  0.00000000E+00  0.00000000E+00
  0.00000000E+00  0.00000000E+00  0.00000000E+00
  0.00000000E+00  0.00000000E+00  0.00000000E+00
  0.00000000E+00  0.00000000E+00  0.00000000E+00
  0.00000000E+00  0.00000000E+00  0.00000000E+00
  0.00000000E+00  0.00000000E+00  0.00000000E+00
  0.00000000E+00  0.00000000E+00  0.00000000E+00
  0.00000000E+00  0.00000000E+00  0.00000000E+00
  0.00000000E+00  0.00000000E+00  0.00000000E+00
  0.00000000E+00  0.00000000E+00  0.00000000E+00
  0.00000000E+00  0.00000000E+00  0.00000000E+00
  0.00000000E+00  0.00000000E+00  0.00000000E+00
  0.00000000E+00  0.00000000E+00  0.00000000E+00
  0.00000000E+00  0.00000000E+00  0.00000000E+00
  0.00000000E+00  0.00000000E+00  0.00000000E+00
  0.00000000E+00  0.00000000E+00  0.00000000E+00
  0.00000000E+00  0.00000000E+00  0.00000000E+00
  0.00000000E+00  0.00000000E+00  0.00000000E+00
  0.00000000E+00  0.00000000E+00  0.00000000E+00
  0.00000000E+00  0.00000000E+00  0.00000000E+00
  0.00000000E+00  0.00000000E+00  0.00000000E+00
  0.00000000E+00  0.00000000E+00  0.00000000E+00
  0.00000000E+00  0.00000000E+00  0.00000000E+00
  0.00000000E+00  0.00000000E+00  0.00000000E+00
  0.00000000E+00  0.00000000E+00  0.00000000E+00
  0.00000000E+00  0.00000000E+00  0.00000000E+00
  0.00000000E+00  0.00000000E+00  0.00000000E+00
  0.00000000E+00  0.00000000E+00  0.00000000E+00
  0.00000000E+00  0.00000000E+00  0.00000000E+00
  0.00000000E+00  0.00000000E+00  0.00000000E+00
  0.00000000E+00  0.00000000E+00  0.00000000E+00
  0.00000000E+00  0.00000000E+00  0.00000000E+00
  0.00000000E+00  0.00000000E+00  0.00000000E+00
  0.00000000E+00  0.00000000E+00  0.00000000E+00
  0.00000000E+00  0.00000000E+00  0.00000000E+00
  0.00000000E+00  0.00000000E+00  0.00000000E+00
  0.00000000E+00  0.00000000E+00  0.00000000E+00
