MoB2                                    
   1.0000000000000000     
    10.5395298004000004    0.0000000000000000    0.0000000000000000
     0.0000000000000000    6.1412000655999996    0.0000000000000000
     0.0000000000000000    0.0000000000000000   24.1275005341000011
   Mo   V    B    H 
    15     6    48     2
Selective dynamics
Direct
  0.0000000000000000  0.0000000000000000  0.1261009300445366   F   F   F
  0.9984357777137873  0.5000000000325642  0.3746843714384482   F   F   F
  0.5014569065310113  0.0000000000000000  0.3736185408538120   F   F   F
  0.4998980681092675  0.0000000000000000  0.2518386911405202   F   F   F
  0.4999999999810214  0.5000000000325642  0.1261009300445366   F   F   F
  0.2499999547323242  0.0000000000000000  0.0630504650429913   F   F   F
  0.2499999547323242  0.0000000000000000  0.1891513901553949   F   F   F
  0.2496257294988737  0.0000000000000000  0.3156935835618313   F   F   F
  0.2499999547323242  0.5000000000325642  0.1891513901553949   F   F   F
  0.2474438307391083  0.5000000000325642  0.3147571427992233   F   F   F
  0.7499999547133527  0.0000000000000000  0.0630504650429913   F   F   F
  0.7508490251338955  0.0000000000000000  0.3150365552477012   F   F   F
  0.7499999547133527  0.5000000000325642  0.0630504650429913   F   F   F
  0.7499999547133527  0.5000000000325642  0.1891513901553949   F   F   F
  0.7524697104323366  0.5000000000325642  0.3151895028352385   F   F   F
  0.9985906887990907  0.0000000000000000  0.3717821817606932   F   F   F
  0.5024379952698652  0.5000000000325642  0.3719908814141419   F   F   F
  0.0000000000000000  0.5000000000325642  0.1261009300445366   F   F   F
  0.4999999999810214  0.0000000000000000  0.1261009300445366   F   F   F
  0.0026912497556495  0.0000000000000000  0.2527260400795370   F   F   F
  0.4984455500852221  0.5000000000325642  0.2533545105660906   F   F   F
  0.0833333182441081  0.2499999999348645  0.0630504650429913   F   F   F
  0.0833333182441081  0.2499999999348645  0.1891513901553949   F   F   F
  0.0801995745548254  0.2514797115389413  0.3152416579682722   F   F   F
  0.0833333182441081  0.7499999612127937  0.0630504650429913   F   F   F
  0.0833333182441081  0.7499999612127937  0.1891513901553949   F   F   F
  0.0801995745548254  0.7485202689860415  0.3152416579682722   F   F   F
  0.5833333182251295  0.2499999999348645  0.0630504650429913   F   F   F
  0.5833333182251295  0.2499999999348645  0.1891513901553949   F   F   F
  0.5847270659803172  0.2574747477870218  0.3163349989450026   F   F   F
  0.5833333182251295  0.7499999612127937  0.0630504650429913   F   F   F
  0.5833333182251295  0.7499999612127937  0.1891513901553949   F   F   F
  0.5847270659803172  0.7425252522781136  0.3163349989450026   F   F   F
  0.3308229119355630  0.2470205443228437  0.3813894794446142   F   F   F
  0.3333333634928053  0.2499999999348645  0.1261009300445366   F   F   F
  0.3332701820214652  0.2536828278444645  0.2529870331729214   F   F   F
  0.3308229119355630  0.7529794557422917  0.3813894794446142   F   F   F
  0.3333333634928053  0.7499999612127937  0.1261009300445366   F   F   F
  0.3332701820214652  0.7463171528433534  0.2529870331729214   F   F   F
  0.8328929706775767  0.2499184526811291  0.3802264928368473   F   F   F
  0.8333333634738267  0.2499999999348645  0.1261009300445366   F   F   F
  0.8356741321292844  0.2441003709351648  0.2512399050383465   F   F   F
  0.8328929706775767  0.7500815667613239  0.3802264928368473   F   F   F
  0.8333333634738267  0.7499999612127937  0.1261009300445366   F   F   F
  0.8356741321292844  0.7558996291299707  0.2512399050383465   F   F   F
  0.4166666817369133  0.2499999999348645  0.0630504650429913   F   F   F
  0.4166666817369133  0.2499999999348645  0.1891513901553949   F   F   F
  0.4172389570769184  0.2579723394576021  0.3172663407956904   F   F   F
  0.4166666817369133  0.7499999612127937  0.0630504650429913   F   F   F
  0.4166666817369133  0.7499999612127937  0.1891513901553949   F   F   F
  0.4172389570769184  0.7420276993621755  0.3172663407956904   F   F   F
  0.9166666817179419  0.2499999999348645  0.0630504650429913   F   F   F
  0.9166666817179419  0.2499999999348645  0.1891513901553949   F   F   F
  0.9175751558321892  0.2528921043786667  0.3143951200945594   F   F   F
  0.9166666817179419  0.7499999612127937  0.0630504650429913   F   F   F
  0.9166666817179419  0.7499999612127937  0.1891513901553949   F   F   F
  0.9175751558321892  0.7471078955236337  0.3143951200945594   F   F   F
  0.1670715477205817  0.2479884160639543  0.3803261390060229   F   F   F
  0.1666666364882161  0.2499999999348645  0.1261009300445366   F   F   F
  0.1595837166223646  0.2544987472000386  0.2523190362547467   F   F   F
  0.1670715477205817  0.7520116033784987  0.3803261390060229   F   F   F
  0.1666666364882161  0.7499999612127937  0.1261009300445366   F   F   F
  0.1595837166223646  0.7455012528650968  0.2523190362547467   F   F   F
  0.6691113276924696  0.2490214325643478  0.3815394032212112   F   F   F
  0.6666666364692446  0.2499999999348645  0.1261009300445366   F   F   F
  0.6685905386151632  0.2431702348153522  0.2511031633151291   F   F   F
  0.6691113276924696  0.7509786062554227  0.3815394032212112   F   F   F
  0.6666666364692446  0.7499999612127937  0.1261009300445366   F   F   F
  0.6685905386151632  0.7568297457096307  0.2511031633151291   F   F   F
  0.5981345415292301  0.7352516612872237  0.4236743812296134   T   T   T
  0.6046222178756369  0.3075640599662020  0.4232904239176760   T   T   T

  0.00000000E+00  0.00000000E+00  0.00000000E+00
  0.00000000E+00  0.00000000E+00  0.00000000E+00
  0.00000000E+00  0.00000000E+00  0.00000000E+00
  0.00000000E+00  0.00000000E+00  0.00000000E+00
  0.00000000E+00  0.00000000E+00  0.00000000E+00
  0.00000000E+00  0.00000000E+00  0.00000000E+00
  0.00000000E+00  0.00000000E+00  0.00000000E+00
  0.00000000E+00  0.00000000E+00  0.00000000E+00
  0.00000000E+00  0.00000000E+00  0.00000000E+00
  0.00000000E+00  0.00000000E+00  0.00000000E+00
  0.00000000E+00  0.00000000E+00  0.00000000E+00
  0.00000000E+00  0.00000000E+00  0.00000000E+00
  0.00000000E+00  0.00000000E+00  0.00000000E+00
  0.00000000E+00  0.00000000E+00  0.00000000E+00
  0.00000000E+00  0.00000000E+00  0.00000000E+00
  0.00000000E+00  0.00000000E+00  0.00000000E+00
  0.00000000E+00  0.00000000E+00  0.00000000E+00
  0.00000000E+00  0.00000000E+00  0.00000000E+00
  0.00000000E+00  0.00000000E+00  0.00000000E+00
  0.00000000E+00  0.00000000E+00  0.00000000E+00
  0.00000000E+00  0.00000000E+00  0.00000000E+00
  0.00000000E+00  0.00000000E+00  0.00000000E+00
  0.00000000E+00  0.00000000E+00  0.00000000E+00
  0.00000000E+00  0.00000000E+00  0.00000000E+00
  0.00000000E+00  0.00000000E+00  0.00000000E+00
  0.00000000E+00  0.00000000E+00  0.00000000E+00
  0.00000000E+00  0.00000000E+00  0.00000000E+00
  0.00000000E+00  0.00000000E+00  0.00000000E+00
  0.00000000E+00  0.00000000E+00  0.00000000E+00
  0.00000000E+00  0.00000000E+00  0.00000000E+00
  0.00000000E+00  0.00000000E+00  0.00000000E+00
  0.00000000E+00  0.00000000E+00  0.00000000E+00
  0.00000000E+00  0.00000000E+00  0.00000000E+00
  0.00000000E+00  0.00000000E+00  0.00000000E+00
  0.00000000E+00  0.00000000E+00  0.00000000E+00
  0.00000000E+00  0.00000000E+00  0.00000000E+00
  0.00000000E+00  0.00000000E+00  0.00000000E+00
  0.00000000E+00  0.00000000E+00  0.00000000E+00
  0.00000000E+00  0.00000000E+00  0.00000000E+00
  0.00000000E+00  0.00000000E+00  0.00000000E+00
  0.00000000E+00  0.00000000E+00  0.00000000E+00
  0.00000000E+00  0.00000000E+00  0.00000000E+00
  0.00000000E+00  0.00000000E+00  0.00000000E+00
  0.00000000E+00  0.00000000E+00  0.00000000E+00
  0.00000000E+00  0.00000000E+00  0.00000000E+00
  0.00000000E+00  0.00000000E+00  0.00000000E+00
  0.00000000E+00  0.00000000E+00  0.00000000E+00
  0.00000000E+00  0.00000000E+00  0.00000000E+00
  0.00000000E+00  0.00000000E+00  0.00000000E+00
  0.00000000E+00  0.00000000E+00  0.00000000E+00
  0.00000000E+00  0.00000000E+00  0.00000000E+00
  0.00000000E+00  0.00000000E+00  0.00000000E+00
  0.00000000E+00  0.00000000E+00  0.00000000E+00
  0.00000000E+00  0.00000000E+00  0.00000000E+00
  0.00000000E+00  0.00000000E+00  0.00000000E+00
  0.00000000E+00  0.00000000E+00  0.00000000E+00
  0.00000000E+00  0.00000000E+00  0.00000000E+00
  0.00000000E+00  0.00000000E+00  0.00000000E+00
  0.00000000E+00  0.00000000E+00  0.00000000E+00
  0.00000000E+00  0.00000000E+00  0.00000000E+00
  0.00000000E+00  0.00000000E+00  0.00000000E+00
  0.00000000E+00  0.00000000E+00  0.00000000E+00
  0.00000000E+00  0.00000000E+00  0.00000000E+00
  0.00000000E+00  0.00000000E+00  0.00000000E+00
  0.00000000E+00  0.00000000E+00  0.00000000E+00
  0.00000000E+00  0.00000000E+00  0.00000000E+00
  0.00000000E+00  0.00000000E+00  0.00000000E+00
  0.00000000E+00  0.00000000E+00  0.00000000E+00
  0.00000000E+00  0.00000000E+00  0.00000000E+00
  0.00000000E+00  0.00000000E+00  0.00000000E+00
  0.00000000E+00  0.00000000E+00  0.00000000E+00
