B2 Mo                                   
   1.0000000000000000     
     6.0880553824745878   -0.0037616766839105    0.0000000000000000
    -3.0472861005653886    5.2705293767265040    0.0000000000000000
     0.0000000000000000    0.0000000000000000    6.2408206786816347
     V   
     2   
Direct
 -0.0000000000000000 -0.0000000000000000 -0.0000000000000000
  0.4999999920976350  0.4999999864164053  0.5000000000409131
  