MoB2                                    
   1.0000000000000000     
     8.6453199387000002    0.0000000000000000    0.0000000000000000
    -2.1414606584000002    5.6957327634999997    0.0000000000000000
    -0.2384319305000000   -9.8409511943000005   23.9952660313000017
   Mo   V    B 
    12     4    32
Direct
  0.0062139780483041  0.5079936547906506  0.3370130608520668
 -0.0027731964771393  0.4976606268121728  0.4995081572210366
  0.5062140757866123  0.0079937218145124  0.3370130608520668
  0.4972267855916538 -0.0023393061639652  0.4995081572210366
  0.2506705257393585  0.0022546628229868  0.4172451396701913
  0.2451862467115472 -0.0080176192944065  0.5796312542402510
  0.2501317037338074  0.4995759789001811  0.4170409875930594
  0.2457110782972753  0.4922467690337227  0.5795406362744097
  0.7501316858026009 -0.0004239540759569  0.4170409875930594
  0.7457110603660615 -0.0077531639424151  0.5795406362744097
  0.7506705507611140  0.5022545957991246  0.4172451396701913
  0.7451861560637736  0.4919823136817315  0.5796312542402510
  0.0049090904743549  0.0096759378401332  0.3378032101461725
 -0.0010402077153972 -0.0024502320837799  0.4985120417316295
  0.5049089998265884  0.5096758708162711  0.3378032101461725
  0.4989598173063510  0.4975497008923582  0.4985120417316295
  0.4558109886677072  0.3319945012525953  0.4011411457483131
  0.4604514992165236  0.3640614450187975  0.5892157525128779
  0.4548508688475094  0.8247669853067507  0.4001673475637754
  0.4610453489078812  0.8626645720407886  0.5880939277042462
  0.9548509665858178  0.3247670523306129  0.4001673475637754
  0.9610454466461967  0.3626646390646507  0.5880939277042461
  0.9558110136894556  0.8319944342287333  0.4011411457483131
  0.9604516399077939  0.8640613779949358  0.5892157525128779
  0.2087484745198961  0.3326223747426075  0.4869732951799166
  0.2096004397670008  0.3301827645152842  0.3175816285251666
  0.2047187970479576  0.8362554681260933  0.4875004094806014
  0.2078056933588167  0.8302790165260910  0.3168258823885491
  0.7047187356277481  0.3362553595799184  0.4875004094806014
  0.7078057476081224  0.3302789079799234  0.3168258823885491
  0.7087485430306467  0.8326224832887822  0.4869732951799166
  0.7096003926082297  0.8301828730614517  0.3175816285251666
  0.0399636079555703  0.1629143329472127  0.4297632818526061
  0.0424468961584050  0.1691016687355327  0.5987209734424898
  0.0401902113434272  0.6669680133567230  0.4299413337026748
  0.0432780585063017  0.6730969628565348  0.6008606107821566
  0.5401901934122203  0.1669680803805784  0.4299413337026748
  0.5432780405750878  0.1730970298803970  0.6008606107821566
  0.5399636329773256  0.6629142659233579  0.4297632818526061
  0.5424468055106388  0.6691016017116704  0.5987209734424898
  0.2902024944385381  0.1443197761897272  0.3319110732009487
  0.2944329554621413  0.1717149385212529  0.5152514992093198
  0.2912419699785925  0.6309897371579876  0.3244638624622479
  0.2962026298412054  0.6691273268129326  0.5152931407675360
  0.7912417207083489  0.1309898041818498  0.3244638624622479
  0.7962024962404766  0.1691273938367946  0.5152931407675360
  0.7902022881212494  0.6443197091658656  0.3319110732009487
  0.7944328648143748  0.6717148714973910  0.5152514992093198

  0.00000000E+00  0.00000000E+00  0.00000000E+00
  0.00000000E+00  0.00000000E+00  0.00000000E+00
  0.00000000E+00  0.00000000E+00  0.00000000E+00
  0.00000000E+00  0.00000000E+00  0.00000000E+00
  0.00000000E+00  0.00000000E+00  0.00000000E+00
  0.00000000E+00  0.00000000E+00  0.00000000E+00
  0.00000000E+00  0.00000000E+00  0.00000000E+00
  0.00000000E+00  0.00000000E+00  0.00000000E+00
  0.00000000E+00  0.00000000E+00  0.00000000E+00
  0.00000000E+00  0.00000000E+00  0.00000000E+00
  0.00000000E+00  0.00000000E+00  0.00000000E+00
  0.00000000E+00  0.00000000E+00  0.00000000E+00
  0.00000000E+00  0.00000000E+00  0.00000000E+00
  0.00000000E+00  0.00000000E+00  0.00000000E+00
  0.00000000E+00  0.00000000E+00  0.00000000E+00
  0.00000000E+00  0.00000000E+00  0.00000000E+00
  0.00000000E+00  0.00000000E+00  0.00000000E+00
  0.00000000E+00  0.00000000E+00  0.00000000E+00
  0.00000000E+00  0.00000000E+00  0.00000000E+00
  0.00000000E+00  0.00000000E+00  0.00000000E+00
  0.00000000E+00  0.00000000E+00  0.00000000E+00
  0.00000000E+00  0.00000000E+00  0.00000000E+00
  0.00000000E+00  0.00000000E+00  0.00000000E+00
  0.00000000E+00  0.00000000E+00  0.00000000E+00
  0.00000000E+00  0.00000000E+00  0.00000000E+00
  0.00000000E+00  0.00000000E+00  0.00000000E+00
  0.00000000E+00  0.00000000E+00  0.00000000E+00
  0.00000000E+00  0.00000000E+00  0.00000000E+00
  0.00000000E+00  0.00000000E+00  0.00000000E+00
  0.00000000E+00  0.00000000E+00  0.00000000E+00
  0.00000000E+00  0.00000000E+00  0.00000000E+00
  0.00000000E+00  0.00000000E+00  0.00000000E+00
  0.00000000E+00  0.00000000E+00  0.00000000E+00
  0.00000000E+00  0.00000000E+00  0.00000000E+00
  0.00000000E+00  0.00000000E+00  0.00000000E+00
  0.00000000E+00  0.00000000E+00  0.00000000E+00
  0.00000000E+00  0.00000000E+00  0.00000000E+00
  0.00000000E+00  0.00000000E+00  0.00000000E+00
  0.00000000E+00  0.00000000E+00  0.00000000E+00
  0.00000000E+00  0.00000000E+00  0.00000000E+00
  0.00000000E+00  0.00000000E+00  0.00000000E+00
  0.00000000E+00  0.00000000E+00  0.00000000E+00
  0.00000000E+00  0.00000000E+00  0.00000000E+00
  0.00000000E+00  0.00000000E+00  0.00000000E+00
  0.00000000E+00  0.00000000E+00  0.00000000E+00
  0.00000000E+00  0.00000000E+00  0.00000000E+00
  0.00000000E+00  0.00000000E+00  0.00000000E+00
  0.00000000E+00  0.00000000E+00  0.00000000E+00
