B2 Mo
1.0
        6.0780000687         0.0000000000         0.0000000000
       -3.0390007352         5.2637020590         0.0000000000
        0.0000000000         0.0000000000        22.3299999237
   Mo    V    B
   12    2   40
Cartesian
    0.000000    0.000000    1.527500
    0.000000    0.000000    7.637500
   -1.519500    2.631851    4.582500
   -1.519500    2.631851   10.692500
   -1.519500    2.631851    1.527500
   -1.519500    2.631851    7.637500
    3.039000    0.000000    4.582500
    3.039000    0.000000   10.692500
    3.039000    0.000000    1.527500
    3.039000    0.000000    7.637500
    1.519500    2.631851    4.582500
    1.519500    2.631851   10.692500
  1.519500    2.631851    1.527500
  1.519500    2.631851    7.637500
 -0.000000    1.754567    0.000000
 -0.000000    1.754567   12.220000
 -0.000000    1.754567    6.110000
 -0.000000    1.754567    3.055000
 -0.000000    1.754567    9.165000
 -1.519501    4.386418    0.000000
 -1.519501    4.386418   12.220000
 -1.519501    4.386418    6.110000
 -1.519501    4.386418    3.055000
 -1.519501    4.386418    9.165000
  3.039000    1.754567    0.000000
  3.039000    1.754567   12.220000
  3.039000    1.754567    6.110000
  3.039000    1.754567    3.055000
  3.039000    1.754567    9.165000
  1.519499    4.386418    0.000000
  1.519499    4.386418   12.220000
  1.519499    4.386418    6.110000
  1.519499    4.386418    3.055000
  1.519499    4.386418    9.165000
  1.519500    0.877284    0.000000
  1.519500    0.877284   12.220000
  1.519500    0.877284    6.110000
  1.519500    0.877284    3.055000
  1.519500    0.877284    9.165000
 -0.000000    3.509134    0.000000
 -0.000000    3.509134   12.220000
 -0.000000    3.509134    6.110000
 -0.000000    3.509134    3.055000
 -0.000000    3.509134    9.165000
  4.558499    0.877284    0.000000
  4.558499    0.877284   12.220000
  4.558499    0.877284    6.110000
  4.558499    0.877284    3.055000
  4.558499    0.877284    9.165000
  3.038999    3.509134    0.000000
  3.038999    3.509134   12.220000
  3.038999    3.509134    6.110000
  3.038999    3.509134    3.055000
  3.038999    3.509134    9.165000

