MoVB2                                   
1.0
       10.3670539856         0.0000000000         0.0000000000
        0.0000000000        24.2804012299         0.0000000000
        0.0000000000         0.0000000000         6.1360545158
   Mo    V    B
   12   12   48
Cartesian
     0.000000000         0.000000000         0.000000000
     0.001695979         6.083762646         0.000000000
     5.183526993         3.035050154         0.000000000
     0.000000000         3.035050154         0.000000000
     5.183526993         0.000000000         0.000000000
     5.181830883         6.083762646         0.000000000
     7.775290489         1.517525077         3.068027258
     7.775290489         7.495476246         3.068027258
     2.591763496         4.552575111         3.068027258
     2.591763496         1.517525077         3.068027258
     2.591763496         7.482784271         3.068027258
     7.775290489         4.552575111         3.068027258
     0.000000000         0.000000000         3.068027258
    10.363618851         6.044913769         3.068027258
     5.183526993         3.035050154         3.068027258
     0.000000000         3.035050154         3.068027258
     5.183526993         0.000000000         3.068027258
     5.186962128         6.044913769         3.068027258
     7.775290489         1.517525077         0.000000000
     7.775290489         7.587625504         0.000000000
     2.591763496         4.552575111         0.000000000
     2.591763496         1.517525077         0.000000000
     2.591763496         7.441075802         0.000000000
     7.775290489         4.552575111         0.000000000
     9.476384163         1.517525077         1.534013629
     9.476384163         1.517525077         4.602040768
     9.535329819         7.682444572         1.578576326
     9.535329819         7.682444572         4.557478428
     4.292857170         4.552575111         1.534013629
     4.292857170         4.552575111         4.602040768
     0.890670598         4.552575111         1.534013629
     0.890670598         4.552575111         4.602040768
     6.074197292         1.517525077         1.534013629
     6.074197292         1.517525077         4.602040768
     6.015251637         7.682444572         1.578576326
     6.015251637         7.682444572         4.557478428
     9.476384163         4.552575111         1.534013629
     9.476384163         4.552575111         4.602040768
     4.292857170         1.517525077         1.534013629
     4.292857170         1.517525077         4.602040768
     4.339659691         7.666068077         1.565436125
     4.339659691         7.666068077         4.570618629
     0.890670478         1.517525077         1.534013629
     0.890670478         1.517525077         4.602040768
     0.843867540         7.666068077         1.565436125
     0.843867540         7.666068077         4.570618629
     6.074197292         4.552575111         1.534013629
     6.074197292         4.552575111         4.602040768
     6.933549881         3.035050154         1.534013629
     6.933549881         3.035050154         4.602040768
     1.750022888         0.000000000         1.534013629
     1.750022888         0.000000000         4.602040768
     1.719139099         6.118214607         1.511622071
     1.719139099         6.118214607         4.624432564
     3.433504105         3.035050154         1.534013629
     3.433504105         3.035050154         4.602040768
     8.617031097         0.000000000         1.534013629
     8.617031097         0.000000000         4.602040768
     8.644283295         6.144661903         1.496380806
     8.644283295         6.144661903         4.639673710
     1.750022769         3.035050154         1.534013629
     1.750022769         3.035050154         4.602040768
     6.933549881         0.000000000         1.534013629
     6.933549881         0.000000000         4.602040768
     6.906297207         6.144661903         1.496380806
     6.906297207         6.144661903         4.639673710
     8.617031097         3.035049915         1.534013629
     8.617031097         3.035049915         4.602040768
     3.433504105         0.000000000         1.534013629
     3.433504105         0.000000000         4.602040768
     3.464387894         6.118214607         1.511622071
     3.464387894         6.118214607         4.624432564
