B2 Mo                                   
1.0
        6.0425882339         0.0000000000         0.0000000000
       -3.0210584412         5.2331368390         0.0000000000
        0.0000662017         0.0000750229        23.4135704038
   Mo    V    B
    6      8   40
Cartesian
    3.019492    5.233011    1.600694
    3.019514    5.233036    7.738551
    1.508648    2.616482    4.667826
    1.508670    2.616507   10.805683
    1.508702    2.616416    1.599533
    1.508724    2.616441    7.737391
   4.530071    2.616488    4.668610
   4.530093    2.616513   10.806467
   4.529973    2.616495    1.599306
   4.529995    2.616520    7.737163
  -0.001789    5.233090    4.668612
  -0.001767    5.233115   10.806469
  -0.001784    5.232995    1.599302
  -0.001762    5.233019    7.737159
  -0.024865    1.721881    0.009512
  -0.024821    1.721931   12.285226
  -0.024843    1.721906    6.147369
  -0.024975    1.721868    3.191010
  -0.024953    1.721893    9.328866
   3.042239    3.511010    0.009478
   3.042283    3.511060   12.285192
   3.042261    3.511035    6.147335
   3.042336    3.511062    3.191010
   3.042358    3.511087    9.328867
   1.516677    4.391812    0.009555
   1.516721    4.391862   12.285269
   1.516699    4.391838    6.147412
   1.516601    4.391900    3.190950
   1.516623    4.391925    9.328807
   1.500749    0.841102    0.009527
   1.500794    0.841152   12.285240
   1.500771    0.841127    6.147384
   1.500746    0.841041    3.190981
   1.500769    0.841066    9.328837
  -1.514605    4.362066    0.010720
  -1.514561    4.362116   12.286433
  -1.514583    4.362091    6.148577
  -1.514061    4.361720    3.188990
  -1.514039    4.361745    9.326847
   4.532029    0.870860    0.010772
   4.532073    0.870910   12.286485
   4.532051    0.870885    6.148629
   4.531412    0.871217    3.188942
   4.531434    0.871242    9.326799
   3.041320    1.731584    0.066909
   3.041364    1.731634   12.342623
   3.041342    1.731609    6.204766
   3.041262    1.731634    3.130898
   3.041284    1.731659    9.268754
  -0.023921    3.501329    0.066961
  -0.023876    3.501379   12.342674
  -0.023898    3.501354    6.204818
  -0.023843    3.501298    3.130861
  -0.023821    3.501323    9.268718
