B2 Mo                                   
   1.0000000000000000     
     6.0880565643000004    0.0000000000000000    0.0000000000000000
    -3.0505411110999998    5.2686460937000001    0.0000000000000000
     0.0000000000000000    0.0000000000000000   23.7224636078000017
   Mo   V    B    H 
    10     4    40     5
Selective dynamics
Direct
  0.0001818344930697  0.5001833763613703  0.0696377139538242   F   F   F
  0.0015422005256838  0.5009473265163820  0.3306234428544386   F   F   F
  0.0004059843299800  0.5003143819342881  0.1989401646061850   F   F   F
  0.0016550532766786  0.5010651636208223  0.4607209398945571   F   F   F
  0.5001388733055450  0.0001753160078621  0.0696340355416041   F   F   F
  0.5012011567315113  0.0006969754534083  0.3306323876252506   F   F   F
  0.5005027699690601  0.0003478973473250  0.1989477827441277   F   F   F
  0.5015897852792079  0.0009706543026553  0.4607658849735188   F   F   F
  0.5001365870810943  0.5001075335370686  0.0691941979188115   F   F   F
  0.5013362377165791  0.5007363599833781  0.3302772090004922   F   F   F
  0.0001169496882909  0.0001652530810574  0.0703625537632249   F   F   F
  0.0012175208019940  0.0007792117608574  0.3299065327442108   F   F   F
  0.5004071749800545  0.5004363369847056  0.1988864757473436   F   F   F
  0.5016118216909433  0.5010147977402397  0.4550780014032938   F   F   F
  0.1653016148795743  0.3262441859693936  0.1359726081712438   F   F   F
  0.1641934231529589  0.3238465812004776  0.3998072990143200   F   F   F
  0.1656423470043720  0.3314164157064781  0.0013952429877122   F   F   F
  0.1788794750917049  0.3387232887276213  0.5254393139800868   F   F   F
  0.1661218726865599  0.3278733834609966  0.2631017906145203   F   F   F
  0.1621813656394409  0.8383140405428620  0.1348072121796164   F   F   F
  0.1638617700037983  0.8387745282956587  0.3980121895052875   F   F   F
  0.1658431773784699  0.8343071265037381  0.0012546894155747   F   F   F
  0.1635276078024148  0.8391961897548867  0.5267263591835203   F   F   F
  0.1630614715132310  0.8384395705155043  0.2639382795782339   F   F   F
  0.6652352341556949  0.3352609415371717  0.1343862741958972   F   F   F
  0.6662745877535201  0.3362117159697107  0.3967282800217049   F   F   F
  0.6668363739269267  0.3333161316528503  0.0003953581784373   F   F   F
  0.6734101390166671  0.3295238496045485  0.5292390622056615   F   F   F
  0.6659711049080173  0.3355333606699915  0.2638947415200832   F   F   F
  0.6741907778910772  0.8351582326361822  0.1359490502048715   F   F   F
  0.6785464399658494  0.8382448948850367  0.3998164648835782   F   F   F
  0.6687140582279483  0.8344943808727834  0.0013915915541389   F   F   F
  0.6641183370632788  0.8240796445203813  0.5254650026273566   F   F   F
  0.6736729533574675  0.8353920967025985  0.2630832176278659   F   F   F
  0.3262736005066103  0.1652643727657406  0.1359881761580297   F   F   F
  0.3245333546119014  0.1636993771571227  0.3998148970447346   F   F   F
  0.3313917661122687  0.1656718928310141  0.0013964956400727   F   F   F
  0.3394235689083942  0.1781490837128601  0.5254881987847639   F   F   F
  0.3282071823744701  0.1658337264377536  0.2631148962516576   F   F   F
  0.3352789792692832  0.6652118826487197  0.1343759625771668   F   F   F
  0.3368196267887029  0.6657172156987414  0.3967275161887258   F   F   F
  0.3332953151735012  0.6668529137307573  0.0003940287633952   F   F   F
  0.3300990965896062  0.6726991543876935  0.5292605699212345   F   F   F
  0.3358828623243895  0.6656155789612370  0.2638643091412263   F   F   F
  0.8383181924803225  0.1621672459688739  0.1347930914708471   F   F   F
  0.8392256802286013  0.1632644682717554  0.3980308027491475   F   F   F
  0.8342858614776745  0.1658719873109291  0.0012556964357699   F   F   F
  0.8399937012928476  0.1629782245246574  0.5266947609476702   F   F   F
  0.8387367496322540  0.1627363733968110  0.2639269829859217   F   F   F
  0.8351895948130590  0.6741771411155000  0.1359573618205303   F   F   F
  0.8387255986216431  0.6780009640942524  0.3997843842357796   F   F   F
  0.8344708979759972  0.6687510683651965  0.0013943613760716   F   F   F
  0.8246742179332998  0.6634502995332596  0.5254075951412460   F   F   F
  0.8356701132459605  0.6733102419313894  0.2630949363095567   F   F   F
  0.2397616260093258  0.7620001276609969  0.5710599822207283   F   F   T
  0.2761524696344324  0.2755737349176144  0.5701606537842453   F   F   T
  0.7635703844602517  0.2400181094934624  0.5712274535621283   F   F   T
  0.7275825430095750  0.7266431145523029  0.5693089591683589   F   F   T
  0.5067174717617304  0.7520220838366221  0.5695244726679310   T   T   T

  0.00000000E+00  0.00000000E+00  0.00000000E+00
  0.00000000E+00  0.00000000E+00  0.00000000E+00
  0.00000000E+00  0.00000000E+00  0.00000000E+00
  0.00000000E+00  0.00000000E+00  0.00000000E+00
  0.00000000E+00  0.00000000E+00  0.00000000E+00
  0.00000000E+00  0.00000000E+00  0.00000000E+00
  0.00000000E+00  0.00000000E+00  0.00000000E+00
  0.00000000E+00  0.00000000E+00  0.00000000E+00
  0.00000000E+00  0.00000000E+00  0.00000000E+00
  0.00000000E+00  0.00000000E+00  0.00000000E+00
  0.00000000E+00  0.00000000E+00  0.00000000E+00
  0.00000000E+00  0.00000000E+00  0.00000000E+00
  0.00000000E+00  0.00000000E+00  0.00000000E+00
  0.00000000E+00  0.00000000E+00  0.00000000E+00
  0.00000000E+00  0.00000000E+00  0.00000000E+00
  0.00000000E+00  0.00000000E+00  0.00000000E+00
  0.00000000E+00  0.00000000E+00  0.00000000E+00
  0.00000000E+00  0.00000000E+00  0.00000000E+00
  0.00000000E+00  0.00000000E+00  0.00000000E+00
  0.00000000E+00  0.00000000E+00  0.00000000E+00
  0.00000000E+00  0.00000000E+00  0.00000000E+00
  0.00000000E+00  0.00000000E+00  0.00000000E+00
  0.00000000E+00  0.00000000E+00  0.00000000E+00
  0.00000000E+00  0.00000000E+00  0.00000000E+00
  0.00000000E+00  0.00000000E+00  0.00000000E+00
  0.00000000E+00  0.00000000E+00  0.00000000E+00
  0.00000000E+00  0.00000000E+00  0.00000000E+00
  0.00000000E+00  0.00000000E+00  0.00000000E+00
  0.00000000E+00  0.00000000E+00  0.00000000E+00
  0.00000000E+00  0.00000000E+00  0.00000000E+00
  0.00000000E+00  0.00000000E+00  0.00000000E+00
  0.00000000E+00  0.00000000E+00  0.00000000E+00
  0.00000000E+00  0.00000000E+00  0.00000000E+00
  0.00000000E+00  0.00000000E+00  0.00000000E+00
  0.00000000E+00  0.00000000E+00  0.00000000E+00
  0.00000000E+00  0.00000000E+00  0.00000000E+00
  0.00000000E+00  0.00000000E+00  0.00000000E+00
  0.00000000E+00  0.00000000E+00  0.00000000E+00
  0.00000000E+00  0.00000000E+00  0.00000000E+00
  0.00000000E+00  0.00000000E+00  0.00000000E+00
  0.00000000E+00  0.00000000E+00  0.00000000E+00
  0.00000000E+00  0.00000000E+00  0.00000000E+00
  0.00000000E+00  0.00000000E+00  0.00000000E+00
  0.00000000E+00  0.00000000E+00  0.00000000E+00
  0.00000000E+00  0.00000000E+00  0.00000000E+00
  0.00000000E+00  0.00000000E+00  0.00000000E+00
  0.00000000E+00  0.00000000E+00  0.00000000E+00
  0.00000000E+00  0.00000000E+00  0.00000000E+00
  0.00000000E+00  0.00000000E+00  0.00000000E+00
  0.00000000E+00  0.00000000E+00  0.00000000E+00
  0.00000000E+00  0.00000000E+00  0.00000000E+00
  0.00000000E+00  0.00000000E+00  0.00000000E+00
  0.00000000E+00  0.00000000E+00  0.00000000E+00
  0.00000000E+00  0.00000000E+00  0.00000000E+00
  0.00000000E+00  0.00000000E+00  0.00000000E+00
  0.00000000E+00  0.00000000E+00  0.00000000E+00
  0.00000000E+00  0.00000000E+00  0.00000000E+00
  0.00000000E+00  0.00000000E+00  0.00000000E+00
  0.00000000E+00  0.00000000E+00  0.00000000E+00
