B2 Mo                                   
   1.0000000000000000     
     5.9925122980901024    0.0000000113825012    0.0000000000000000
    -2.9962568301799810    5.1896674893240418   -0.0000000000000000
     0.0000000000000000   -0.0000000000000000    6.0531367688072093
     V     
     8    
Direct
  0.0000000000000000  0.0000000000000000  0.0000000000000000
 -0.0000000000000000 -0.0000000000000000  0.5000000000409131
  0.9999999919906983  0.4999999864164053  0.0000000000000000
  0.9999999919906983  0.4999999864164053  0.5000000000409131
  0.4999999999424176  0.0000000000000000  0.0000000000000000
  0.4999999999424176 -0.0000000000000000  0.5000000000409131
  0.4999999920976350  0.4999999864164053  0.0000000000000000
  0.4999999920976350  0.4999999864164053  0.5000000000409131
  