B2 Mo                                   
   1.0000000000000000     
     6.0425882339000001    0.0000000000000000    0.0000000000000000
    -3.0210584412000001    5.2331368390000002    0.0000000000000000
     0.0000654718000000    0.0000737958000000   23.4135704038000014
   Mo   V    B    H 
     6     8    40     1
Direct
  0.9994047042677779  0.0001832821720201  0.0696856266034814
 -0.0011212236795360  0.0005704927865491  0.3303421848973545
  0.4989082618301877  0.5006079974121181  0.1986962115835192
  0.5014577423677082  0.4979404113773381  0.4602066924411343
  0.4994612435433529  0.5001239124135941  0.0694077973881370
  0.4982035522627501  0.5012178553557305  0.3312794351071505
 -0.0007115003786491  0.5006330129165864  0.1995150887710722
  0.9948843558497765  0.4976660737713298  0.4619283866107265
  0.9992809252634880  0.5001175739059505  0.0690925141732944
  0.9985868452815895  0.5022362757401501  0.3309262294795922
  0.4988883283961759  0.0002372569147613  0.1995126193183543
  0.5017165393108245  0.0044929775304562  0.4619022667438992
  0.4994808400413058  0.0003140688950617  0.0690918027384164
  0.4971843835530546  0.0008411290509090  0.3309254605329586
  0.1654042620687415  0.3340668982520741  0.0003640705217051
  0.1619300754668755  0.3283357437027405  0.5234718293128039
  0.1599458975730616  0.3301722175645437  0.2624225498743806
  0.1601406407038695  0.3298446439294483  0.1358229343708013
  0.1592107026469208  0.3293420715826509  0.3989856111283771
  0.8337135795084533  0.6660469270245618  0.0003802781852331
  0.8336721513861025  0.6680149854206971  0.5257098964345511
  0.8374337709162490  0.6709384913802190  0.2623144297078210
  0.8383663768239380  0.6705770833402360  0.1358361474899674
  0.8382698318868076  0.6726459955409514  0.3988450772302792
  0.6655527726505535  0.8342125185824808  0.0003650041135249
  0.6709975925933491  0.8374092327221716  0.5234783090239161
  0.6692862153360181  0.8395231234716242  0.2624296851262214
  0.6697342630000777  0.8394326153279122  0.1358253253658776
  0.6700616994553360  0.8401952016554725  0.3989815421897780
  0.3335685833813372  0.1659021858954459  0.0003787099543471
  0.3313739074010751  0.1657101211358940  0.5257123163689603
  0.3285365691053621  0.1620447046183297  0.2623089987265423
  0.3289931315549439  0.1612013403524634  0.1358326388172187
  0.3267409380637653  0.1611252259812238  0.3988464177883468
  0.1669551075532355  0.8326651726259577  0.0015261369436914
  0.1629054848399644  0.8364976645003359  0.5268619558524786
  0.1649894410187223  0.8344723422811526  0.2621984564219532
  0.1659576786191697  0.8335969033473684  0.1356450597604207
  0.1655773075544927  0.8338010829591059  0.3985594205705545
  0.8321660254704525  0.1674527015599703  0.0015615674524822
  0.8353840535179626  0.1639586401917393  0.5229501216978872
  0.8323687056004366  0.1671054674555032  0.2622732993757960
  0.8326257445922263  0.1669328467910756  0.1357377752782899
  0.8317544343871431  0.1676575921516471  0.3982149936445712
  0.6671038556965164  0.3325127520692894  0.0016641323636767
  0.6662784574734707  0.3330470971781180  0.5241198505394625
  0.6677313893239804  0.3317284319843656  0.2645695406534520
  0.6686302980851913  0.3309413766753890  0.1329979166662109
  0.6676566667777509  0.3317447133331039  0.3952853228445029
  0.3320315464402170  0.6675965289187319  0.0016425944365513
  0.3287427636312317  0.6706564491012263  0.5265079968742358
  0.3298634808829618  0.6696181550306552  0.2644832660939034
  0.3299785319168845  0.6695860781264273  0.1329219925574467
  0.3294664947486338  0.6699412526753991  0.3959629012887022
  0.2518073694276088  0.7480841057536013  0.5712325285845307

  0.00000000E+00  0.00000000E+00  0.00000000E+00
  0.00000000E+00  0.00000000E+00  0.00000000E+00
  0.00000000E+00  0.00000000E+00  0.00000000E+00
  0.00000000E+00  0.00000000E+00  0.00000000E+00
  0.00000000E+00  0.00000000E+00  0.00000000E+00
  0.00000000E+00  0.00000000E+00  0.00000000E+00
  0.00000000E+00  0.00000000E+00  0.00000000E+00
  0.00000000E+00  0.00000000E+00  0.00000000E+00
  0.00000000E+00  0.00000000E+00  0.00000000E+00
  0.00000000E+00  0.00000000E+00  0.00000000E+00
  0.00000000E+00  0.00000000E+00  0.00000000E+00
  0.00000000E+00  0.00000000E+00  0.00000000E+00
  0.00000000E+00  0.00000000E+00  0.00000000E+00
  0.00000000E+00  0.00000000E+00  0.00000000E+00
  0.00000000E+00  0.00000000E+00  0.00000000E+00
  0.00000000E+00  0.00000000E+00  0.00000000E+00
  0.00000000E+00  0.00000000E+00  0.00000000E+00
  0.00000000E+00  0.00000000E+00  0.00000000E+00
  0.00000000E+00  0.00000000E+00  0.00000000E+00
  0.00000000E+00  0.00000000E+00  0.00000000E+00
  0.00000000E+00  0.00000000E+00  0.00000000E+00
  0.00000000E+00  0.00000000E+00  0.00000000E+00
  0.00000000E+00  0.00000000E+00  0.00000000E+00
  0.00000000E+00  0.00000000E+00  0.00000000E+00
  0.00000000E+00  0.00000000E+00  0.00000000E+00
  0.00000000E+00  0.00000000E+00  0.00000000E+00
  0.00000000E+00  0.00000000E+00  0.00000000E+00
  0.00000000E+00  0.00000000E+00  0.00000000E+00
  0.00000000E+00  0.00000000E+00  0.00000000E+00
  0.00000000E+00  0.00000000E+00  0.00000000E+00
  0.00000000E+00  0.00000000E+00  0.00000000E+00
  0.00000000E+00  0.00000000E+00  0.00000000E+00
  0.00000000E+00  0.00000000E+00  0.00000000E+00
  0.00000000E+00  0.00000000E+00  0.00000000E+00
  0.00000000E+00  0.00000000E+00  0.00000000E+00
  0.00000000E+00  0.00000000E+00  0.00000000E+00
  0.00000000E+00  0.00000000E+00  0.00000000E+00
  0.00000000E+00  0.00000000E+00  0.00000000E+00
  0.00000000E+00  0.00000000E+00  0.00000000E+00
  0.00000000E+00  0.00000000E+00  0.00000000E+00
  0.00000000E+00  0.00000000E+00  0.00000000E+00
  0.00000000E+00  0.00000000E+00  0.00000000E+00
  0.00000000E+00  0.00000000E+00  0.00000000E+00
  0.00000000E+00  0.00000000E+00  0.00000000E+00
  0.00000000E+00  0.00000000E+00  0.00000000E+00
  0.00000000E+00  0.00000000E+00  0.00000000E+00
  0.00000000E+00  0.00000000E+00  0.00000000E+00
  0.00000000E+00  0.00000000E+00  0.00000000E+00
  0.00000000E+00  0.00000000E+00  0.00000000E+00
  0.00000000E+00  0.00000000E+00  0.00000000E+00
  0.00000000E+00  0.00000000E+00  0.00000000E+00
  0.00000000E+00  0.00000000E+00  0.00000000E+00
  0.00000000E+00  0.00000000E+00  0.00000000E+00
  0.00000000E+00  0.00000000E+00  0.00000000E+00
  0.00000000E+00  0.00000000E+00  0.00000000E+00
