MoVB2                                   
   1.0000000000000000     
     6.0654672899496376   -0.0075924965193465    0.0000000000000000
    -3.0393089398886519    5.2490525107436197    0.0000000000000000
     0.0000000000000000    0.0000000000000000    9.2846596913643005
   Mo   V    B 
     6     6    24
Direct
  0.0000000000000000  0.0000000000000000 -0.0000000000000000
  0.0000000000000000  0.0000000000000000  0.3333333506082781
  0.0000000000000000  0.0000000000000000  0.6666667012165561
  0.4999999910163027  0.4999999818682568 -0.0000000000000000
  0.4999999910163027  0.4999999818682568  0.3333333506082781
  0.4999999910163027  0.4999999818682568  0.6666667012165561
  0.9999999908601751  0.4999999818682568 -0.0000000000000000
  0.9999999908601751  0.4999999818682568  0.3333333506082781
  0.9999999908601751  0.4999999818682568  0.6666667012165561
  0.4999999999917861  0.0000000000000000  0.0000000000000000
  0.4999999999917861  0.0000000000000000  0.3333333506082781
  0.4999999999917861  0.0000000000000000  0.6666667012165561
  0.1634310877971658  0.3365689167503645  0.1666666752498642
  0.1634310877971658  0.3365689167503645  0.5000000000217142
  0.1634310877971658  0.3365689167503645  0.8333332988485793
  0.8365688713945529  0.6634310016330873  0.1666666752498642
  0.8365688713945529  0.6634310016330873  0.5000000000217142
  0.8365688713945529  0.6634310016330873  0.8333332988485793
  0.6634310394416774  0.8365688984288637  0.1666666752498642
  0.6634310394416774  0.8365688984288637  0.5000000000217142
  0.6634310394416774  0.8365688984288637  0.8333332988485793
  0.3365689145099593  0.1634310876995514  0.1666666752498642
  0.3365689145099593  0.1634310876995514  0.5000000000217142
  0.3365689145099593  0.1634310876995514  0.8333332988485793
  0.1693972517780041  0.8306027449339523  0.1666666752498642
  0.1693972517780041  0.8306027449339523  0.5000000000217142
  0.1693972517780041  0.8306027449339523  0.8333332988485793
  0.8306027217299216  0.1693972411944629  0.1666666752498642
  0.8306027217299216  0.1693972411944629  0.5000000000217142
  0.8306027217299216  0.1693972411944629  0.8333332988485793
  0.6693972412838635  0.3306027632554531  0.1666666752498642
  0.6693972412838635  0.3306027632554531  0.5000000000217142
  0.6693972412838635  0.3306027632554531  0.8333332988485793
  0.3306027179078625  0.6693971551279988  0.1666666752498642
  0.3306027179078625  0.6693971551279988  0.5000000000217142
  0.3306027179078625  0.6693971551279988  0.8333332988485793

  0.00000000E+00  0.00000000E+00  0.00000000E+00
  0.00000000E+00  0.00000000E+00  0.00000000E+00
  0.00000000E+00  0.00000000E+00  0.00000000E+00
  0.00000000E+00  0.00000000E+00  0.00000000E+00
  0.00000000E+00  0.00000000E+00  0.00000000E+00
  0.00000000E+00  0.00000000E+00  0.00000000E+00
  0.00000000E+00  0.00000000E+00  0.00000000E+00
  0.00000000E+00  0.00000000E+00  0.00000000E+00
  0.00000000E+00  0.00000000E+00  0.00000000E+00
  0.00000000E+00  0.00000000E+00  0.00000000E+00
  0.00000000E+00  0.00000000E+00  0.00000000E+00
  0.00000000E+00  0.00000000E+00  0.00000000E+00
  0.00000000E+00  0.00000000E+00  0.00000000E+00
  0.00000000E+00  0.00000000E+00  0.00000000E+00
  0.00000000E+00  0.00000000E+00  0.00000000E+00
  0.00000000E+00  0.00000000E+00  0.00000000E+00
  0.00000000E+00  0.00000000E+00  0.00000000E+00
  0.00000000E+00  0.00000000E+00  0.00000000E+00
  0.00000000E+00  0.00000000E+00  0.00000000E+00
  0.00000000E+00  0.00000000E+00  0.00000000E+00
  0.00000000E+00  0.00000000E+00  0.00000000E+00
  0.00000000E+00  0.00000000E+00  0.00000000E+00
  0.00000000E+00  0.00000000E+00  0.00000000E+00
  0.00000000E+00  0.00000000E+00  0.00000000E+00
  0.00000000E+00  0.00000000E+00  0.00000000E+00
  0.00000000E+00  0.00000000E+00  0.00000000E+00
  0.00000000E+00  0.00000000E+00  0.00000000E+00
  0.00000000E+00  0.00000000E+00  0.00000000E+00
  0.00000000E+00  0.00000000E+00  0.00000000E+00
  0.00000000E+00  0.00000000E+00  0.00000000E+00
  0.00000000E+00  0.00000000E+00  0.00000000E+00
  0.00000000E+00  0.00000000E+00  0.00000000E+00
  0.00000000E+00  0.00000000E+00  0.00000000E+00
  0.00000000E+00  0.00000000E+00  0.00000000E+00
  0.00000000E+00  0.00000000E+00  0.00000000E+00
  0.00000000E+00  0.00000000E+00  0.00000000E+00
