 2 Mo0.5b2                              
   1.0000000000000000     
     6.0780000686999998    0.0000000000000000    0.0000000000000000
    -3.0390007352000001    5.2637020589999999    0.0000000000000000
     0.0000000000000000    0.0000000000000000   22.2199993133999989
   Mo   V    B    H 
     8     6    40     3
Direct
  0.0000127938632550 -0.0007669878905597  0.2060362553930347
  0.9972030533221016 -0.0032533689290520  0.4836632412123623
  0.9998032544000426  0.0002315592748585  0.0692407695933186
  0.0050534722476541  0.0040134777545888  0.3458344492120162
  0.5012878511012262  0.5005198604083450  0.2060851850646050
  0.5064094460742848  0.5059738401060001  0.4838169472378843
  0.4995634441733840  0.5000439774171893  0.0692288413248264
  0.4980383599104464  0.4969768562672392  0.3458015965293592
  0.9993942211340657  0.5003861686015038  0.0700368401569592
  0.0017700904929269  0.4999476181251133  0.3445108758384346
  0.4996173843340451  0.0010078556719977  0.2066672459959309
  0.5061260717304626 -0.0034467402165059  0.4802115319092768
  0.4998318943711377  0.9998872190519801  0.0689005020513295
  0.5034045945491270 -0.0013390627877579  0.3453553057867147
  0.1652960706668798  0.3342422033107308  0.9967034349981877
  0.1638129269156629  0.3392232300546259  0.5537615700405326
  0.1625649607827004  0.3387105341847583  0.2746611551858807
  0.1614181568253917  0.3386474839042649  0.1384074575170829
  0.1651809886570582  0.3375855043078881  0.4166481799194973
  0.8337635893164397  0.6657965809230140  0.9967787587251766
  0.8453210499361622  0.6583150975185876  0.5469783581056687
  0.8394954600276350  0.6618536488487150  0.2745723562371291
  0.8383966821574835  0.6616494593244487  0.1383049577074811
  0.8409833047477260  0.6613517342971325  0.4162157649360331
  0.6654211027012176  0.8341422600612231  0.9969284176154897
  0.6647876501448412  0.8388693410522126  0.5501727651990314
  0.6653860541605119  0.8360065196961318  0.2757249160123751
  0.6632085834611873  0.8367899062902039  0.1365566439522031
  0.6658620058124022  0.8365997927435427  0.4132667360376387
  0.3336503506882811  0.1659066377928594  0.9968831888520835
  0.3314483205934366  0.1714533846050885  0.5564624033351765
  0.3376858201700150  0.1635212000201061  0.2752602715872015
  0.3366099795577407  0.1634766902634085  0.1366330027892604
  0.3395238062245053  0.1630281653974954  0.4150234974509676
  0.1669445005360032  0.8321653028417022  0.9979113098210893
  0.1754052986020789  0.8381383674068305  0.5541494332278341
  0.1682918489074972  0.8286192069218475  0.2748073721488991
  0.1676094793487146  0.8282801024154699  0.1379687725114787
  0.1680711790961468  0.8272074175968362  0.4172644289786187
  0.8318943715433511  0.1678460745320763  0.9978995776328893
  0.8290097638366007  0.1674703612782467  0.5540280286051864
  0.8332481041799493  0.1711709105109467  0.2747083155586414
  0.8324945516593995  0.1719190107940093  0.1380318021663434
  0.8364961168622218  0.1747123993069560  0.4170373967882149
  0.6673667679513228  0.3325866045572042  0.9979085449453693
  0.6649966320696744  0.3279730222969935  0.5540987381272623
  0.6727418406388882  0.3329487836110874  0.2747621452759443
  0.6717223331627246  0.3324153516490137  0.1379405036223771
  0.6752622655657032  0.3344714967489130  0.4172603934808525
  0.3316670794477911  0.6676280601109283  0.9979040015141905
  0.3359234644140752  0.6742709203554469  0.5540804442634374
  0.3302154811949569  0.6680700926400653  0.2747250846668671
  0.3280764761758278  0.6675084989584849  0.1380509679361417
  0.3278588545279360  0.6659223483665453  0.4170701143834623
  0.2629878761966097  0.7694447886808489  0.6015798369734826
  0.2419773627951970  0.2595031569338516  0.6007009362553476
  0.7338405007607047  0.2416760114037378  0.6015038200346869

  0.00000000E+00  0.00000000E+00  0.00000000E+00
  0.00000000E+00  0.00000000E+00  0.00000000E+00
  0.00000000E+00  0.00000000E+00  0.00000000E+00
  0.00000000E+00  0.00000000E+00  0.00000000E+00
  0.00000000E+00  0.00000000E+00  0.00000000E+00
  0.00000000E+00  0.00000000E+00  0.00000000E+00
  0.00000000E+00  0.00000000E+00  0.00000000E+00
  0.00000000E+00  0.00000000E+00  0.00000000E+00
  0.00000000E+00  0.00000000E+00  0.00000000E+00
  0.00000000E+00  0.00000000E+00  0.00000000E+00
  0.00000000E+00  0.00000000E+00  0.00000000E+00
  0.00000000E+00  0.00000000E+00  0.00000000E+00
  0.00000000E+00  0.00000000E+00  0.00000000E+00
  0.00000000E+00  0.00000000E+00  0.00000000E+00
  0.00000000E+00  0.00000000E+00  0.00000000E+00
  0.00000000E+00  0.00000000E+00  0.00000000E+00
  0.00000000E+00  0.00000000E+00  0.00000000E+00
  0.00000000E+00  0.00000000E+00  0.00000000E+00
  0.00000000E+00  0.00000000E+00  0.00000000E+00
  0.00000000E+00  0.00000000E+00  0.00000000E+00
  0.00000000E+00  0.00000000E+00  0.00000000E+00
  0.00000000E+00  0.00000000E+00  0.00000000E+00
  0.00000000E+00  0.00000000E+00  0.00000000E+00
  0.00000000E+00  0.00000000E+00  0.00000000E+00
  0.00000000E+00  0.00000000E+00  0.00000000E+00
  0.00000000E+00  0.00000000E+00  0.00000000E+00
  0.00000000E+00  0.00000000E+00  0.00000000E+00
  0.00000000E+00  0.00000000E+00  0.00000000E+00
  0.00000000E+00  0.00000000E+00  0.00000000E+00
  0.00000000E+00  0.00000000E+00  0.00000000E+00
  0.00000000E+00  0.00000000E+00  0.00000000E+00
  0.00000000E+00  0.00000000E+00  0.00000000E+00
  0.00000000E+00  0.00000000E+00  0.00000000E+00
  0.00000000E+00  0.00000000E+00  0.00000000E+00
  0.00000000E+00  0.00000000E+00  0.00000000E+00
  0.00000000E+00  0.00000000E+00  0.00000000E+00
  0.00000000E+00  0.00000000E+00  0.00000000E+00
  0.00000000E+00  0.00000000E+00  0.00000000E+00
  0.00000000E+00  0.00000000E+00  0.00000000E+00
  0.00000000E+00  0.00000000E+00  0.00000000E+00
  0.00000000E+00  0.00000000E+00  0.00000000E+00
  0.00000000E+00  0.00000000E+00  0.00000000E+00
  0.00000000E+00  0.00000000E+00  0.00000000E+00
  0.00000000E+00  0.00000000E+00  0.00000000E+00
  0.00000000E+00  0.00000000E+00  0.00000000E+00
  0.00000000E+00  0.00000000E+00  0.00000000E+00
  0.00000000E+00  0.00000000E+00  0.00000000E+00
  0.00000000E+00  0.00000000E+00  0.00000000E+00
  0.00000000E+00  0.00000000E+00  0.00000000E+00
  0.00000000E+00  0.00000000E+00  0.00000000E+00
  0.00000000E+00  0.00000000E+00  0.00000000E+00
  0.00000000E+00  0.00000000E+00  0.00000000E+00
  0.00000000E+00  0.00000000E+00  0.00000000E+00
  0.00000000E+00  0.00000000E+00  0.00000000E+00
  0.00000000E+00  0.00000000E+00  0.00000000E+00
  0.00000000E+00  0.00000000E+00  0.00000000E+00
  0.00000000E+00  0.00000000E+00  0.00000000E+00
