MoVB2
1.0
        6.0850000381         0.0000000000         0.0000000000
       -3.0425000191         5.2697646151         0.0000000000
        0.0000000000         0.0000000000         9.2117996216
    Mo    V    B
    6     6    24
Cartesian
     0.000000000         0.000000000         0.000000000
     0.000000000         0.000000000         3.070600033
     0.000000000         0.000000000         6.141200066
     1.521250010         2.634882212         0.000000000
     1.521250010         2.634882212         3.070600033
     1.521250010         2.634882212         6.141200066
	-1.521250010         2.634882212         0.000000000
    -1.521250010         2.634882212         3.070600033
    -1.521250010         2.634882212         6.141200066
     3.042500019         0.000000000         0.000000000
     3.042500019         0.000000000         3.070600033
     3.042500019         0.000000000         6.141200066
     0.000000000         1.756588221         1.535300016
     0.000000000         1.756588221         4.605899811
     0.000000000         1.756588221         7.676499367
     3.042500019         3.513175964         1.535300016
     3.042500019         3.513175964         4.605899811
     3.042500019         3.513175964         7.676499367
     1.521249771         4.391470432         1.535300016
     1.521249771         4.391470432         4.605899811
     1.521249771         4.391470432         7.676499367
     1.521250010         0.878294110         1.535300016
     1.521250010         0.878294110         4.605899811
     1.521250010         0.878294110         7.676499367
    -1.521249890         4.391470432         1.535300016
    -1.521249890         4.391470432         4.605899811
    -1.521249890         4.391470432         7.676499367
     4.563749790         0.878294110         1.535300016
     4.563749790         0.878294110         4.605899811
     4.563749790         0.878294110         7.676499367
     3.042500019         1.756588221         1.535300016
     3.042500019         1.756588221         4.605899811
     3.042500019         1.756588221         7.676499367
     0.000000000         3.513175964         1.535300016
     0.000000000         3.513175964         4.605899811
     0.000000000         3.513175964         7.676499367
