MoB2                                    
   1.0000000000000000     
    10.5395298004000004    0.0000000000000000    0.0000000000000000
     0.0000000000000000    6.1412000655999996    0.0000000000000000
     0.0000000000000000    0.0000000000000000   24.1274995803999985
   Mo   V    B 
    15     6    48
Selective dynamics
Direct
  0.0000000000000000  0.0000000000000000  0.1261009243772406   F   F   F
 -0.0006813953989910  0.5000234310605942  0.2514065565266408   T   T   T
  0.5000000094691117  0.0000000000000000  0.0000000000000000   F   F   F
  0.4996670108417575  0.0013736461625801  0.2533821128292378   T   T   T
  0.5000000094691117  0.4999999946590279  0.1261009243772406   F   F   F
  0.2499999572941078  0.0000000000000000  0.0630504621886203   F   F   F
  0.2499999572941078  0.0000000000000000  0.1891513865658681   F   F   F
  0.2506153711204396  0.0002395750513845  0.3091724875576791   T   T   T
  0.2499999572941078  0.4999999946590279  0.0630504621886203   F   F   F
  0.2501496501700553  0.5004927709330129  0.3110912494910175   T   T   T
  0.7499999667632267  0.0000000000000000  0.1891513865658681   F   F   F
  0.7501998018904256  0.0001811526745472  0.3103694128062163   T   T   T
  0.7499999667632267  0.4999999946590279  0.0630504621886203   F   F   F
  0.7499999667632267  0.4999999946590279  0.1891513865658681   F   F   F
  0.7489654978715478  0.5000005820772176  0.3108010370824197   T   T   T
  0.0000000000000000  0.0000000000000000  0.0000000000000000   F   F   F
  0.4999999999810214  0.5000000000325642  0.0000000000000000   F   F   F
  0.0000000000000000  0.5000000000325642  0.1261009251647280   F   F   F
  0.4999999999810214  0.0000000000000000  0.1261009251647280   F   F   F
 -0.0004851451547590 -0.0000525263508108  0.2520220874486272   T   T   T
  0.5013326115536505  0.5010349313361091  0.2502670402979523   T   T   T
  0.0833333190980383  0.2499999973295104  0.0630504621886203   F   F   F
  0.0833333190980383  0.2499999973295104  0.1891513865658681   F   F   F
  0.0815400234543774  0.2405102746226215  0.3172286258474040   T   T   T
  0.0833333190980383  0.7499999919885383  0.0630504621886203   F   F   F
  0.0833333190980383  0.7499999919885383  0.1891513865658681   F   F   F
  0.0816301306591160  0.7596774115987454  0.3171657375690031   T   T   T
  0.5833333285671500  0.2499999973295104  0.0630504621886203   F   F   F
  0.5833333285671500  0.2499999973295104  0.1891513865658681   F   F   F
  0.5791901577867936  0.2587933893376802  0.3191943490875030   T   T   T
  0.5833333285671500  0.7499999919885383  0.0630504621886203   F   F   F
  0.5833333285671500  0.7499999919885383  0.1891513865658681   F   F   F
  0.5791025053016284  0.7422981475430863  0.3191103754735806   T   T   T
  0.3333333712730422  0.2499999973295104  0.0000000000000000   F   F   F
  0.3333333712730422  0.2499999973295104  0.1261009243772406   F   F   F
  0.3332342992206917  0.2666367402963573  0.2515380129069021   T   T   T
  0.3333333712730422  0.7499999919885383  0.0000000000000000   F   F   F
  0.3333333712730422  0.7499999919885383  0.1261009243772406   F   F   F
  0.3334670637008888  0.7350740381374363  0.2514438978154494   T   T   T
  0.8333333807421539  0.2499999973295104  0.0000000000000000   F   F   F
  0.8333333807421539  0.2499999973295104  0.1261009243772406   F   F   F
  0.8361189876322921  0.2461437846524069  0.2546147944028295   T   T   T
  0.8333333807421539  0.7499999919885383  0.0000000000000000   F   F   F
  0.8333333807421539  0.7499999919885383  0.1261009243772406   F   F   F
  0.8360664422195743  0.7538838696579987  0.2546190745186859   T   T   T
  0.4166666903710734  0.2499999973295104  0.0630504621886203   F   F   F
  0.4150291510315409  0.2593873523544711  0.1893761852676354   T   T   T
  0.4180068743408410  0.2572978090379673  0.3172717024316112   T   T   T
  0.4166666903710734  0.7499999919885383  0.0630504621886203   F   F   F
  0.4166666903710734  0.7499999919885383  0.1891513865658681   F   F   F
  0.4180282283279750  0.7433876390917028  0.3172491203240867   T   T   T
  0.9166666998401922  0.2499999973295104  0.0630504621886203   F   F   F
  0.9166666998401922  0.2499999973295104  0.1891513865658681   F   F   F
  0.9204989913529364  0.2397648698663066  0.3188221792595874   T   T   T
  0.9206418826367334  0.7436280957788015  0.0593461251164567   T   T   T
  0.9166666998401922  0.7499999919885383  0.1891513865658681   F   F   F
  0.9205395957218441  0.7603024205982258  0.3187631923650897   T   T   T
  0.1666666381960766  0.2499999973295104  0.0000000000000000   F   F   F
  0.1666666381960766  0.2499999973295104  0.1261009243772406   F   F   F
  0.1663225265991085  0.2557049032487910  0.2519530635185345   T   T   T
  0.1666666381960766  0.7499999919885383  0.0000000000000000   F   F   F
  0.1666666381960766  0.7499999919885383  0.1261009243772406   F   F   F
  0.1665571064014709  0.7443896538515890  0.2518684349956388   T   T   T
  0.6666666476651883  0.2499999973295104  0.0000000000000000   F   F   F
  0.6666666476651883  0.2499999973295104  0.1261009243772406   F   F   F
  0.6632474906739372  0.2548698611475575  0.2546374378597527   T   T   T
  0.6666666476651883  0.7499999919885383  0.0000000000000000   F   F   F
  0.6666666476651883  0.7499999919885383  0.1261009243772406   F   F   F
  0.6632670989538553  0.7456137801895660  0.2546270873321712   T   T   T

  0.00000000E+00  0.00000000E+00  0.00000000E+00
  0.00000000E+00  0.00000000E+00  0.00000000E+00
  0.00000000E+00  0.00000000E+00  0.00000000E+00
  0.00000000E+00  0.00000000E+00  0.00000000E+00
  0.00000000E+00  0.00000000E+00  0.00000000E+00
  0.00000000E+00  0.00000000E+00  0.00000000E+00
  0.00000000E+00  0.00000000E+00  0.00000000E+00
  0.00000000E+00  0.00000000E+00  0.00000000E+00
  0.00000000E+00  0.00000000E+00  0.00000000E+00
  0.00000000E+00  0.00000000E+00  0.00000000E+00
  0.00000000E+00  0.00000000E+00  0.00000000E+00
  0.00000000E+00  0.00000000E+00  0.00000000E+00
  0.00000000E+00  0.00000000E+00  0.00000000E+00
  0.00000000E+00  0.00000000E+00  0.00000000E+00
  0.00000000E+00  0.00000000E+00  0.00000000E+00
  0.00000000E+00  0.00000000E+00  0.00000000E+00
  0.00000000E+00  0.00000000E+00  0.00000000E+00
  0.00000000E+00  0.00000000E+00  0.00000000E+00
  0.00000000E+00  0.00000000E+00  0.00000000E+00
  0.00000000E+00  0.00000000E+00  0.00000000E+00
  0.00000000E+00  0.00000000E+00  0.00000000E+00
  0.00000000E+00  0.00000000E+00  0.00000000E+00
  0.00000000E+00  0.00000000E+00  0.00000000E+00
  0.00000000E+00  0.00000000E+00  0.00000000E+00
  0.00000000E+00  0.00000000E+00  0.00000000E+00
  0.00000000E+00  0.00000000E+00  0.00000000E+00
  0.00000000E+00  0.00000000E+00  0.00000000E+00
  0.00000000E+00  0.00000000E+00  0.00000000E+00
  0.00000000E+00  0.00000000E+00  0.00000000E+00
  0.00000000E+00  0.00000000E+00  0.00000000E+00
  0.00000000E+00  0.00000000E+00  0.00000000E+00
  0.00000000E+00  0.00000000E+00  0.00000000E+00
  0.00000000E+00  0.00000000E+00  0.00000000E+00
  0.00000000E+00  0.00000000E+00  0.00000000E+00
  0.00000000E+00  0.00000000E+00  0.00000000E+00
  0.00000000E+00  0.00000000E+00  0.00000000E+00
  0.00000000E+00  0.00000000E+00  0.00000000E+00
  0.00000000E+00  0.00000000E+00  0.00000000E+00
  0.00000000E+00  0.00000000E+00  0.00000000E+00
  0.00000000E+00  0.00000000E+00  0.00000000E+00
  0.00000000E+00  0.00000000E+00  0.00000000E+00
  0.00000000E+00  0.00000000E+00  0.00000000E+00
  0.00000000E+00  0.00000000E+00  0.00000000E+00
  0.00000000E+00  0.00000000E+00  0.00000000E+00
  0.00000000E+00  0.00000000E+00  0.00000000E+00
  0.00000000E+00  0.00000000E+00  0.00000000E+00
  0.00000000E+00  0.00000000E+00  0.00000000E+00
  0.00000000E+00  0.00000000E+00  0.00000000E+00
  0.00000000E+00  0.00000000E+00  0.00000000E+00
  0.00000000E+00  0.00000000E+00  0.00000000E+00
  0.00000000E+00  0.00000000E+00  0.00000000E+00
  0.00000000E+00  0.00000000E+00  0.00000000E+00
  0.00000000E+00  0.00000000E+00  0.00000000E+00
  0.00000000E+00  0.00000000E+00  0.00000000E+00
  0.00000000E+00  0.00000000E+00  0.00000000E+00
  0.00000000E+00  0.00000000E+00  0.00000000E+00
  0.00000000E+00  0.00000000E+00  0.00000000E+00
  0.00000000E+00  0.00000000E+00  0.00000000E+00
  0.00000000E+00  0.00000000E+00  0.00000000E+00
  0.00000000E+00  0.00000000E+00  0.00000000E+00
  0.00000000E+00  0.00000000E+00  0.00000000E+00
  0.00000000E+00  0.00000000E+00  0.00000000E+00
  0.00000000E+00  0.00000000E+00  0.00000000E+00
  0.00000000E+00  0.00000000E+00  0.00000000E+00
  0.00000000E+00  0.00000000E+00  0.00000000E+00
  0.00000000E+00  0.00000000E+00  0.00000000E+00
  0.00000000E+00  0.00000000E+00  0.00000000E+00
  0.00000000E+00  0.00000000E+00  0.00000000E+00
  0.00000000E+00  0.00000000E+00  0.00000000E+00
