MoB2                                    
   1.0000000000000000     
     8.6453199387000002    0.0000000000000000    0.0000000000000000
    -2.1414606584000002    5.6957327634999997    0.0000000000000000
    -0.2384319305000000   -9.8409511943000005   23.9952660313000017
   Mo   V    B 
    12     4    32
Direct
  0.9937573887528361  0.4921021921473957  0.6629833872988022
  0.0028257462199842  0.5022834777453764  0.5004648885012769
  0.4937573708216293 -0.0078977408287422  0.6629833872988022
  0.5028257282887775  0.0022835447692383  0.5004648885012769
  0.2542262609589978  0.0077641759094645  0.4204684256561453
  0.2498598447050641  0.0004486225388174  0.5829520353807708
  0.2548562987815836  0.5080287890697628  0.4203651518084969
  0.2492562367684949  0.4977059987772308  0.5827520760033364
  0.7548562808503768  0.0080288560936247  0.4203651518084969
  0.7492562188372810 -0.0022939341989072  0.5827520760033364
  0.7542262859807533  0.5077641088856023  0.4204684256561453
  0.7498597540572903  0.5004485555149553  0.5829520353807708
  0.0010843395940090  0.0024690228710727  0.5014769437273504
  0.5010843646157573  0.5024689558472106  0.5014769437273504
  0.9951433763716524 -0.0098065247225799  0.6621777376324699
  0.4951434013934005  0.4901934082535582  0.6621777376324699
  0.4575400879600588  0.3308100869038638  0.4012558120836296
  0.4600473259634985  0.3370538916641703  0.5702207740794627
  0.4566745113594861  0.8268822977199399  0.3990935668909257
  0.4597168848966804  0.8329479755444146  0.5700590415775556
  0.9566746090977943  0.3268823647438019  0.3990935668909257
  0.9597169826349956  0.3329480425682769  0.5700590415775556
  0.9575401129818069  0.8308100198800018  0.4012558120836296
  0.9600474666547686  0.8370538246403081  0.5702207740794627
  0.2056029831658570  0.3282986923610850  0.4847492292272207
  0.2098175612535943  0.3554236038639982  0.6679687473528008
  0.2038473960900798  0.8308571824368827  0.4846893284711358
  0.2088587592585284  0.8693790674862397  0.6758055928407806
  0.7038473346698706  0.3308570738907082  0.4846893284711358
  0.7088588569968365  0.3693791345101019  0.6758055928407806
  0.7056030516766080  0.8282988009072598  0.4847492292272207
  0.7098174706058273  0.8554235368401359  0.6679687473528008
  0.0393999750675947  0.1357002373080715  0.4106562527317565
  0.0442318942841094  0.1680735639227836  0.5988704943654828
  0.0389405657995073  0.6376135088575567  0.4120877491469802
  0.0451206176509086  0.6751636774148811  0.5997988760167858
  0.5389405478683008  0.1376135758814117  0.4120877491469802
  0.5451205997196948  0.1751637444387434  0.5997988760167858
  0.5394000000893501  0.6357001702842162  0.4106562527317565
  0.5442318036363427  0.6680734968989216  0.5988704943654828
  0.2903862380722494  0.1698855072813300  0.6824127214632143
  0.2912360340850957  0.1673787646212973  0.5130270621990650
  0.2922495108299671  0.6697856844850130  0.6831826355691976
  0.2953203673407255  0.6637509011593825  0.5124812029685316
  0.7922493772292383  0.1697857515088745  0.6831826355691976
  0.7953202337399969  0.1637509681832445  0.5124812029685316
  0.7903861474244759  0.6698854402574678  0.6824127214632143
  0.7912359434373293  0.6673786975974354  0.5130270621990650

  0.00000000E+00  0.00000000E+00  0.00000000E+00
  0.00000000E+00  0.00000000E+00  0.00000000E+00
  0.00000000E+00  0.00000000E+00  0.00000000E+00
  0.00000000E+00  0.00000000E+00  0.00000000E+00
  0.00000000E+00  0.00000000E+00  0.00000000E+00
  0.00000000E+00  0.00000000E+00  0.00000000E+00
  0.00000000E+00  0.00000000E+00  0.00000000E+00
  0.00000000E+00  0.00000000E+00  0.00000000E+00
  0.00000000E+00  0.00000000E+00  0.00000000E+00
  0.00000000E+00  0.00000000E+00  0.00000000E+00
  0.00000000E+00  0.00000000E+00  0.00000000E+00
  0.00000000E+00  0.00000000E+00  0.00000000E+00
  0.00000000E+00  0.00000000E+00  0.00000000E+00
  0.00000000E+00  0.00000000E+00  0.00000000E+00
  0.00000000E+00  0.00000000E+00  0.00000000E+00
  0.00000000E+00  0.00000000E+00  0.00000000E+00
  0.00000000E+00  0.00000000E+00  0.00000000E+00
  0.00000000E+00  0.00000000E+00  0.00000000E+00
  0.00000000E+00  0.00000000E+00  0.00000000E+00
  0.00000000E+00  0.00000000E+00  0.00000000E+00
  0.00000000E+00  0.00000000E+00  0.00000000E+00
  0.00000000E+00  0.00000000E+00  0.00000000E+00
  0.00000000E+00  0.00000000E+00  0.00000000E+00
  0.00000000E+00  0.00000000E+00  0.00000000E+00
  0.00000000E+00  0.00000000E+00  0.00000000E+00
  0.00000000E+00  0.00000000E+00  0.00000000E+00
  0.00000000E+00  0.00000000E+00  0.00000000E+00
  0.00000000E+00  0.00000000E+00  0.00000000E+00
  0.00000000E+00  0.00000000E+00  0.00000000E+00
  0.00000000E+00  0.00000000E+00  0.00000000E+00
  0.00000000E+00  0.00000000E+00  0.00000000E+00
  0.00000000E+00  0.00000000E+00  0.00000000E+00
  0.00000000E+00  0.00000000E+00  0.00000000E+00
  0.00000000E+00  0.00000000E+00  0.00000000E+00
  0.00000000E+00  0.00000000E+00  0.00000000E+00
  0.00000000E+00  0.00000000E+00  0.00000000E+00
  0.00000000E+00  0.00000000E+00  0.00000000E+00
  0.00000000E+00  0.00000000E+00  0.00000000E+00
  0.00000000E+00  0.00000000E+00  0.00000000E+00
  0.00000000E+00  0.00000000E+00  0.00000000E+00
  0.00000000E+00  0.00000000E+00  0.00000000E+00
  0.00000000E+00  0.00000000E+00  0.00000000E+00
  0.00000000E+00  0.00000000E+00  0.00000000E+00
  0.00000000E+00  0.00000000E+00  0.00000000E+00
  0.00000000E+00  0.00000000E+00  0.00000000E+00
  0.00000000E+00  0.00000000E+00  0.00000000E+00
  0.00000000E+00  0.00000000E+00  0.00000000E+00
  0.00000000E+00  0.00000000E+00  0.00000000E+00
