MoB2                                    
1.0
       10.5395298004         0.0000000000         0.0000000000
        0.0000000000         6.1412000656         0.0000000000
        0.0000000000         0.0000000000        24.1275005341
   Mo    V    B    H
   15    6   48      2
Selective dynamics
Cartesian
     0.000000000         0.000000000         3.042500257  F F F
    10.523043633         3.070600033         9.040197372 F F F
     5.285120010         0.000000000         9.014481544  F F F
     5.268690586         0.000000000         6.076238155  F F F
     5.269764900         3.070600033         3.042500257  F F F
     2.634881973         0.000000000         1.521250129  F F F
     2.634881973         0.000000000         4.563750267  F F F
     2.630937815         0.000000000         7.616897106  F F F
     2.634881973         3.070600033         4.563750267  F F F
     2.607941628         3.070600033         7.594303131  F F F
     7.904646873         0.000000000         1.521250129  F F F
     7.913595676         0.000000000         7.601044655  F F F
     7.904646873         3.070600033         1.521250129  F F F
     7.904646873         3.070600033         4.563750267  F F F
     7.930676937         3.070600033         7.604734898  F F F
    10.524676323         0.000000000         8.970174789 F F F
     5.295460224         3.070600033         8.975210190  F F F
     0.000000000         3.070600033         3.042500257  F F F
     5.269764900         0.000000000         3.042500257  F F F
     0.028364507         0.000000000         6.097647667  F F F
     5.253381729         3.070600033         6.112811089  F F F
     0.878293991         1.535300016         1.521250129  F F F
     0.878293991         1.535300016         4.563750267  F F F
     0.845265806         1.544387221         7.605993271  F F F
     0.878293991         4.605899811         1.521250129  F F F
     0.878293991         4.605899811         4.563750267  F F F
     0.845265806         4.596812725         7.605993271  F F F
     6.148058891         1.535300016         1.521250129  F F F
     6.148058891         1.535300016         4.563750267  F F F
     6.162748337         1.581203938         7.632372856  F F F
     6.148058891         4.605899811         1.521250129  F F F
     6.148058891         4.605899811         4.563750267  F F F
     6.162748337         4.559996128         7.632372856  F F F
     3.486717939         1.517002583         9.201974869  F F F
     3.513176918         1.535300016         3.042500257  F F F
     3.512511015         1.557916999         6.103944778  F F F
     3.486717939         4.624197483         9.201974869  F F F
     3.513176918         4.605899811         3.042500257  F F F
     3.512511015         4.583282948         6.103944778  F F F
     8.778300285         1.534799218         9.173914909  F F F
     8.782941818         1.535300016         3.042500257  F F F
     8.807612419         1.499069214         6.061790943  F F F
     8.778300285         4.606400967         9.173914909  F F F
     8.782941818         4.605899811         3.042500257  F F F
     8.807612419         4.642130852         6.061790943  F F F
     4.391470909         1.535300016         1.521250129  F F F
     4.391470909         1.535300016         4.563750267  F F F
     4.397502422         1.584259748         7.654843807  F F F
     4.391470909         4.605899811         1.521250129  F F F
     4.391470909         4.605899811         4.563750267  F F F
     4.397502422         4.556940556         7.654843807  F F F
     9.661235809         1.535300016         1.521250129  F F F
     9.661235809         1.535300016         4.563750267  F F F
     9.670810699         1.553061008         7.585568428  F F F
     9.661235809         4.605899811         1.521250129  F F F
     9.661235809         4.605899811         4.563750267  F F F
     9.670810699         4.588139057         7.585568428  F F F
     1.760855556         1.522946477         9.176319122  F F F
     1.756587982         1.535300016         3.042500257  F F F
     1.681937337         1.562927723         6.087827682  F F F
     1.760855556         4.618253708         9.176319122  F F F
     1.756587982         4.605899811         3.042500257  F F F
     1.681937337         4.578272343         6.087827682  F F F
     7.052118778         1.529290438         9.205592155  F F F
     7.026352882         1.535300016         3.042500257  F F F
     7.046629906         1.493357062         6.058491707  F F F
     7.052118778         4.611909866         9.205592155  F F F
     7.026352882         4.605899811         3.042500257  F F F
     7.046629906         4.647842884         6.058491707  F F F
     6.329590797         4.723781586        10.288628578 T F T
	 6.329590797         1.646341586        10.288628578 T F T
	 
