MoB2
1.0
       10.5395298004         0.0000000000         0.0000000000
        0.0000000000         6.1412000656         0.0000000000
        0.0000000000         0.0000000000         24.1274995804
   Mo     V     B
   18       6      48
Cartesian
    0.000000    0.000000    3.042500 
    0.000000    3.070600    0.000000 
    0.000000    3.070600    6.085000 
    5.269765    0.000000    0.000000 
    5.269765    0.000000    6.085000 
    5.269765    3.070600    3.042500 
    2.634882    0.000000    1.521250 
    2.634882    0.000000    4.563750 
    2.634882    0.000000    7.606249 
    2.634882    3.070600    1.521250 
    2.634882    3.070600    4.563750 
    2.634882    3.070600    7.606249 
    7.904647    0.000000    1.521250 
    7.904647    0.000000    4.563750 
    7.904647    0.000000    7.606249 
    7.904647    3.070600    1.521250 
    7.904647    3.070600    4.563750 
    7.904647    3.070600    7.606249 
   0.000000000         0.000000000         0.000000000 
   5.269764900         3.070600033         0.000000000 
   0.000000000         3.070600033         3.042500019 
   5.269764900         0.000000000         3.042500019 
   0.000000               0.000000               6.085000000 
   5.269765               3.070600               6.085000 
   0.878294    1.535300    1.521250 
   0.878294    1.535300    4.563750 
   0.878294    1.535300    7.606249 
   0.878294    4.605900    1.521250 
   0.878294    4.605900    4.563750 
   0.878294    4.605900    7.606249 
   6.148059    1.535300    1.521250 
   6.148059    1.535300    4.563750 
   6.148059    1.535300    7.606249 
   6.148059    4.605900    1.521250 
   6.148059    4.605900    4.563750 
   6.148059    4.605900    7.606249 
   3.513177    1.535300    0.000000 
   3.513177    1.535300    3.042500 
   3.513177    1.535300    6.085000 
   3.513177    4.605900    0.000000 
   3.513177    4.605900    3.042500 
   3.513177    4.605900    6.085000 
   8.782942    1.535300    0.000000 
   8.782942    1.535300    3.042500 
   8.782942    1.535300    6.085000 
   8.782942    4.605900    0.000000 
   8.782942    4.605900    3.042500 
   8.782942    4.605900    6.085000 
   4.391471    1.535300    1.521250 
   4.391471    1.535300    4.563750 
   4.391471    1.535300    7.606249 
   4.391471    4.605900    1.521250 
   4.391471    4.605900    4.563750 
   4.391471    4.605900    7.606249 
   9.661236    1.535300    1.521250 
   9.661236    1.535300    4.563750 
   9.661236    1.535300    7.606249 
   9.661236    4.605900    1.521250 
   9.661236    4.605900    4.563750 
   9.661236    4.605900    7.606249 
   1.756588    1.535300    0.000000 
   1.756588    1.535300    3.042500 
   1.756588    1.535300    6.085000 
   1.756588    4.605900    0.000000 
   1.756588    4.605900    3.042500 
   1.756588    4.605900    6.085000 
   7.026353    1.535300    0.000000 
   7.026353    1.535300    3.042500 
   7.026353    1.535300    6.085000 
   7.026353    4.605900    0.000000 
   7.026353    4.605900    3.042500 
   7.026353    4.605900    6.085000 
   