MoB2                                    
   1.0000000000000000     
    10.5395298004000004    0.0000000000000000    0.0000000000000000
     0.0000000000000000    6.1412000655999996    0.0000000000000000
     0.0000000000000000    0.0000000000000000   24.1275005341000011
   Mo   V    B    H 
    18     6    48     3
Selective dynamics
Direct
  0.9999162104556163  0.9998824445397858  0.1243262717478970   F   F   F
  0.0004614488589283  0.4999502291414188  0.0030497842035473   F   F   F
  0.0007642803950958  0.4996283881365855  0.2537763170016802   F   F   F
  0.4999293308891311  0.9999560526286189  0.0030736214426881   F   F   F
  0.5002569334544589  0.0008314127443256  0.2541838939484151   F   F   F
  0.5007008099924661  0.5000437533702069  0.1244238823145878   F   F   F
  0.2501961950807257  0.0000893300973956  0.0616192272754787   F   F   F
  0.2509759084223688  0.0001416125497826  0.1902452449855971   F   F   F
  0.2495654435077554  0.0008151869254434  0.3114419610676151   F   F   F
  0.2502170294067483  0.4997000938285154  0.0615366120871741   F   F   F
  0.2503955120369667  0.5000189067606939  0.1901280885898942   F   F   F
  0.2500443830900281  0.4989199884828466  0.3113752602090756   F   F   F
  0.7502710039967724  0.9998539486435192  0.0618706105462579   F   F   F
  0.7499887345733427  0.9990740763141943  0.1902708976635097   F   F   F
  0.7530603543337193  0.9986646509619632  0.3115432475641811   F   F   F
  0.7501362711361139  0.4998490568960321  0.0618613070131531   F   F   F
  0.7503768720023771  0.5011393327241009  0.1901719234246855   F   F   F
  0.7525301999429814  0.4993353537164751  0.3114344115081522   F   F   F
  0.0003711578290577  0.9997589880505160  0.0049221151537111   F   F   F
  0.4998232818507802  0.5001974138909446  0.0049913083549527   F   F   F
  0.9999967425112288  0.4999872272847057  0.1245548235198513   F   F   F
  0.5004537846460479  0.9998885008479306  0.1245248723859191   F   F   F
  0.0008650847972049  0.0003872788664410  0.2519444836985372   F   F   F
  0.5005842646604393  0.4999058547525195  0.2528652917602159   F   F   F
  0.0835697341988251  0.2497427018525471  0.0598653351994969   F   F   F
  0.0825146735641837  0.2499808991078680  0.1898016199202956   F   F   F
  0.0805203229244427  0.2414914012177007  0.3205488539548185   F   F   F
  0.0836264572226497  0.7501284645983830  0.0598850490111005   F   F   F
  0.0823068454123117  0.7498730106181739  0.1898998826888203   F   F   F
  0.0814863345201076  0.7584545574554440  0.3204157683914985   F   F   F
  0.5834561522627553  0.2500704827387779  0.0599411370007417   F   F   F
  0.5823747603775473  0.2499120469298788  0.1900091732884093   F   F   F
  0.5813582466238145  0.2579460371065494  0.3199724002529365   F   F   F
  0.5835556410463951  0.7498850457251933  0.0599341556725363   F   F   F
  0.5822816960740624  0.7500210031913355  0.1903195151735702   F   F   F
  0.5757856988809564  0.7428397170373415  0.3206260886023671   F   F   F
  0.3313075295700045  0.2495474232445929  0.9946842465543142   F   F   F
  0.3351763716125120  0.2452651131555115  0.1255211364194011   F   F   F
  0.3370525877601480  0.2543265486087734  0.2554863298122356   F   F   F
  0.3314005938734965  0.7502742830036482  0.9947242472994589   F   F   F
  0.3352324273390153  0.7546451091798474  0.1254468860013986   F   F   F
  0.3358102222800952  0.7457119053411887  0.2549902531886730   F   F   F
  0.8311426197274514  0.2501492736908446  0.9948101777918126   F   F   F
  0.8350020965514062  0.2546942005295492  0.1255797145965332   F   F   F
  0.8364511308336944  0.2463171138933120  0.2556802268134390   F   F   F
  0.8312605223306520  0.7498070894634026  0.9947579238503721   F   F   F
  0.8350709559800293  0.7451687743628170  0.1254711255615319   F   F   F
  0.8369931388841678  0.7538498629823920  0.2552022928068141   F   F   F
  0.4169440649841150  0.2501744891207807  0.0599660930461994   F   F   F
  0.4186283163061546  0.2502833093827590  0.1899089737672597   F   F   F
  0.4208757491090012  0.2587373622462792  0.3210498318734736   F   F   F
  0.4169352425791573  0.7498524345094921  0.0599425253749715   F   F   F
  0.4186752330101626  0.7500543908025179  0.1898868587123204   F   F   F
  0.4161059432493417  0.7420665997395375  0.3196255359356783   F   F   F
  0.9169435673148527  0.2498163486960294  0.0598723758376210   F   F   F
  0.9184582035749500  0.2501639680500958  0.1899255946351985   F   F   F
  0.9203000353613362  0.2414536265160976  0.3208484446227260   F   F   F
  0.9168994104113892  0.7499914202111242  0.0598716791637131   F   F   F
  0.9184754863193803  0.7497424107368076  0.1898387352857611   F   F   F
  0.9220237836066616  0.7586714217467545  0.3202518522413627   F   F   F
  0.1691633794642655  0.2502246286695211  0.9946793452592146   F   F   F
  0.1654623654020924  0.2546359858489993  0.1254382988707263   F   F   F
  0.1642657855509171  0.2456859716151598  0.2552359495463037   F   F   F
  0.1691259184951832  0.7496373561883303  0.9947402160070169   F   F   F
  0.1655769539105805  0.7452576786476754  0.1254475677960158   F   F   F
  0.1640828351692107  0.7542909676477763  0.2552180243161573   F   F   F
  0.6690822366413727  0.2496721415393566  0.9948410874999638   F   F   F
  0.6654915922087739  0.2452196127651902  0.1256111677509537   F   F   F
  0.6650434629193782  0.2539059423799515  0.2554062690120205   F   F   F
  0.6691325465707507  0.7501043168750670  0.9948142885367162   F   F   F
  0.6653025227685063  0.7548191906278703  0.1256449530159784   F   F   F
  0.6639033006704409  0.7453676247482406  0.2559533742946982   F   F   F
  0.6203181525956174  0.8760560050826098  0.3588572570637790   T   T   T
  0.1381493100344842  0.6654057571678705  0.3623064599682090   T   T   T
  0.6418321981335466  0.3343866082252354  0.3627486663512242   T   T   T

  0.00000000E+00  0.00000000E+00  0.00000000E+00
  0.00000000E+00  0.00000000E+00  0.00000000E+00
  0.00000000E+00  0.00000000E+00  0.00000000E+00
  0.00000000E+00  0.00000000E+00  0.00000000E+00
  0.00000000E+00  0.00000000E+00  0.00000000E+00
  0.00000000E+00  0.00000000E+00  0.00000000E+00
  0.00000000E+00  0.00000000E+00  0.00000000E+00
  0.00000000E+00  0.00000000E+00  0.00000000E+00
  0.00000000E+00  0.00000000E+00  0.00000000E+00
  0.00000000E+00  0.00000000E+00  0.00000000E+00
  0.00000000E+00  0.00000000E+00  0.00000000E+00
  0.00000000E+00  0.00000000E+00  0.00000000E+00
  0.00000000E+00  0.00000000E+00  0.00000000E+00
  0.00000000E+00  0.00000000E+00  0.00000000E+00
  0.00000000E+00  0.00000000E+00  0.00000000E+00
  0.00000000E+00  0.00000000E+00  0.00000000E+00
  0.00000000E+00  0.00000000E+00  0.00000000E+00
  0.00000000E+00  0.00000000E+00  0.00000000E+00
  0.00000000E+00  0.00000000E+00  0.00000000E+00
  0.00000000E+00  0.00000000E+00  0.00000000E+00
  0.00000000E+00  0.00000000E+00  0.00000000E+00
  0.00000000E+00  0.00000000E+00  0.00000000E+00
  0.00000000E+00  0.00000000E+00  0.00000000E+00
  0.00000000E+00  0.00000000E+00  0.00000000E+00
  0.00000000E+00  0.00000000E+00  0.00000000E+00
  0.00000000E+00  0.00000000E+00  0.00000000E+00
  0.00000000E+00  0.00000000E+00  0.00000000E+00
  0.00000000E+00  0.00000000E+00  0.00000000E+00
  0.00000000E+00  0.00000000E+00  0.00000000E+00
  0.00000000E+00  0.00000000E+00  0.00000000E+00
  0.00000000E+00  0.00000000E+00  0.00000000E+00
  0.00000000E+00  0.00000000E+00  0.00000000E+00
  0.00000000E+00  0.00000000E+00  0.00000000E+00
  0.00000000E+00  0.00000000E+00  0.00000000E+00
  0.00000000E+00  0.00000000E+00  0.00000000E+00
  0.00000000E+00  0.00000000E+00  0.00000000E+00
  0.00000000E+00  0.00000000E+00  0.00000000E+00
  0.00000000E+00  0.00000000E+00  0.00000000E+00
  0.00000000E+00  0.00000000E+00  0.00000000E+00
  0.00000000E+00  0.00000000E+00  0.00000000E+00
  0.00000000E+00  0.00000000E+00  0.00000000E+00
  0.00000000E+00  0.00000000E+00  0.00000000E+00
  0.00000000E+00  0.00000000E+00  0.00000000E+00
  0.00000000E+00  0.00000000E+00  0.00000000E+00
  0.00000000E+00  0.00000000E+00  0.00000000E+00
  0.00000000E+00  0.00000000E+00  0.00000000E+00
  0.00000000E+00  0.00000000E+00  0.00000000E+00
  0.00000000E+00  0.00000000E+00  0.00000000E+00
  0.00000000E+00  0.00000000E+00  0.00000000E+00
  0.00000000E+00  0.00000000E+00  0.00000000E+00
  0.00000000E+00  0.00000000E+00  0.00000000E+00
  0.00000000E+00  0.00000000E+00  0.00000000E+00
  0.00000000E+00  0.00000000E+00  0.00000000E+00
  0.00000000E+00  0.00000000E+00  0.00000000E+00
  0.00000000E+00  0.00000000E+00  0.00000000E+00
  0.00000000E+00  0.00000000E+00  0.00000000E+00
  0.00000000E+00  0.00000000E+00  0.00000000E+00
  0.00000000E+00  0.00000000E+00  0.00000000E+00
  0.00000000E+00  0.00000000E+00  0.00000000E+00
  0.00000000E+00  0.00000000E+00  0.00000000E+00
  0.00000000E+00  0.00000000E+00  0.00000000E+00
  0.00000000E+00  0.00000000E+00  0.00000000E+00
  0.00000000E+00  0.00000000E+00  0.00000000E+00
  0.00000000E+00  0.00000000E+00  0.00000000E+00
  0.00000000E+00  0.00000000E+00  0.00000000E+00
  0.00000000E+00  0.00000000E+00  0.00000000E+00
  0.00000000E+00  0.00000000E+00  0.00000000E+00
  0.00000000E+00  0.00000000E+00  0.00000000E+00
  0.00000000E+00  0.00000000E+00  0.00000000E+00
  0.00000000E+00  0.00000000E+00  0.00000000E+00
  0.00000000E+00  0.00000000E+00  0.00000000E+00
  0.00000000E+00  0.00000000E+00  0.00000000E+00
  0.00000000E+00  0.00000000E+00  0.00000000E+00
  0.00000000E+00  0.00000000E+00  0.00000000E+00
  0.00000000E+00  0.00000000E+00  0.00000000E+00
