 2 Mo0.5b2                              
   1.0000000000000000     
     6.0780000686999998    0.0000000000000000    0.0000000000000000
    -3.0390007352000001    5.2637020589999999    0.0000000000000000
     0.0000000000000000    0.0000000000000000   22.2199993133999989
   Mo   V    B    H 
     8     6    40     2
Direct
  0.9996501461898997  0.0002617109485693  0.2060515527569086
  0.0003362124846763  0.0008832891715008  0.4830806427589641
  0.9993670798906001  0.0001429121040549  0.0692362584159024
  0.0000870016611854  0.0005880275927145  0.3460201772381311
  0.4996245983032754  0.5002390876856255  0.2060846580382452
  0.5004247101248580  0.5008634085935292  0.4832032959332476
  0.4993493199826490  0.5001436006399806  0.0692320490874871
  0.5001159802620133  0.5006480546563778  0.3459979970590921
  0.9993574326002317  0.5001086682497081  0.0700317774877995
  0.0000209070685167  0.5005219154690836  0.3446883512046010
  0.4997166902318933  0.0002827671104880  0.2066909988476187
  0.5002621822620958  0.0007916700099922  0.4829146791974456
  0.4993245233476404  0.0000979880751914  0.0688963245601543
  0.5000169674022278  0.0005909801521955  0.3459248073147291
  0.1650233951776319  0.3343452904747260  0.9967776810651181
  0.1648969402996121  0.3363001587405814  0.5507739690402803
  0.1615112264457266  0.3387704538135994  0.2747411173310105
  0.1610011072201403  0.3386408579838589  0.1383768979737639
  0.1618509717373567  0.3392045490383774  0.4167939604710056
  0.8335460699068633  0.6658587831298650  0.9967755462176751
  0.8361023313294551  0.6654679348988288  0.5506991192882710
  0.8382550919960952  0.6620556182510615  0.2747071492271789
  0.8379047866110954  0.6617103959349792  0.1383567501977157
  0.8385893466347761  0.6622792298419999  0.4167754645668588
  0.6651533905148649  0.8342268542961330  0.9969237167473263
  0.6658598138034781  0.8354178872651206  0.5520866617557415
  0.6638027645284356  0.8365812107149052  0.2754832051271008
  0.6626621043654800  0.8369216685874138  0.1365977613433853
  0.6635088327350406  0.8374588603401859  0.4139574352631756
  0.3334103785238512  0.1659757369485599  0.9969215629302988
  0.3348817576798560  0.1663291505931369  0.5521237612253967
  0.3359697053233422  0.1642824609219369  0.2754932000059970
  0.3362390438095921  0.1634037444444970  0.1365907233383398
  0.3369499976262884  0.1640200950302232  0.4139645262905515
  0.1667766121999933  0.8322493069353529  0.9979161871855673
  0.1699156365050011  0.8346425774766102  0.5546329314966775
  0.1676027933974248  0.8292437652739607  0.2747390776718149
  0.1669668874064926  0.8283025194568486  0.1379642098420588
  0.1665714640973146  0.8274525980612336  0.4170623172110017
  0.8317741450868824  0.1679245067948245  0.9979146688215962
  0.8310149355393394  0.1673018000646685  0.5545394646189297
  0.8321405261111333  0.1716478809563871  0.2747325395472759
  0.8319373343819836  0.1720295780777148  0.1379655614915353
  0.8337955711757281  0.1739776616707466  0.4170709562012271
  0.6671236794832348  0.3325960090986388  0.9979124095849519
  0.6670667167954744  0.3315540524661245  0.5544324449472103
  0.6710899408298338  0.3326594128821179  0.2747066595510119
  0.6712959335202534  0.3326451673307654  0.1379470520247380
  0.6733809909194510  0.3342953358223386  0.4170631877443999
  0.3314310379878035  0.6675892374416277  0.9979161088658073
  0.3339338556911728  0.6702915936501286  0.5545694944360541
  0.3287018230012201  0.6681875646566277  0.2747468664252982
  0.3275705867888670  0.6676669579236297  0.1379813304966039
  0.3269767503358283  0.6670977395090660  0.4170799202488471
  0.2549547083021171  0.7552840281368541  0.6018037557528955
  0.7464965690433882  0.2476910266402466  0.6017302422635503

  0.00000000E+00  0.00000000E+00  0.00000000E+00
  0.00000000E+00  0.00000000E+00  0.00000000E+00
  0.00000000E+00  0.00000000E+00  0.00000000E+00
  0.00000000E+00  0.00000000E+00  0.00000000E+00
  0.00000000E+00  0.00000000E+00  0.00000000E+00
  0.00000000E+00  0.00000000E+00  0.00000000E+00
  0.00000000E+00  0.00000000E+00  0.00000000E+00
  0.00000000E+00  0.00000000E+00  0.00000000E+00
  0.00000000E+00  0.00000000E+00  0.00000000E+00
  0.00000000E+00  0.00000000E+00  0.00000000E+00
  0.00000000E+00  0.00000000E+00  0.00000000E+00
  0.00000000E+00  0.00000000E+00  0.00000000E+00
  0.00000000E+00  0.00000000E+00  0.00000000E+00
  0.00000000E+00  0.00000000E+00  0.00000000E+00
  0.00000000E+00  0.00000000E+00  0.00000000E+00
  0.00000000E+00  0.00000000E+00  0.00000000E+00
  0.00000000E+00  0.00000000E+00  0.00000000E+00
  0.00000000E+00  0.00000000E+00  0.00000000E+00
  0.00000000E+00  0.00000000E+00  0.00000000E+00
  0.00000000E+00  0.00000000E+00  0.00000000E+00
  0.00000000E+00  0.00000000E+00  0.00000000E+00
  0.00000000E+00  0.00000000E+00  0.00000000E+00
  0.00000000E+00  0.00000000E+00  0.00000000E+00
  0.00000000E+00  0.00000000E+00  0.00000000E+00
  0.00000000E+00  0.00000000E+00  0.00000000E+00
  0.00000000E+00  0.00000000E+00  0.00000000E+00
  0.00000000E+00  0.00000000E+00  0.00000000E+00
  0.00000000E+00  0.00000000E+00  0.00000000E+00
  0.00000000E+00  0.00000000E+00  0.00000000E+00
  0.00000000E+00  0.00000000E+00  0.00000000E+00
  0.00000000E+00  0.00000000E+00  0.00000000E+00
  0.00000000E+00  0.00000000E+00  0.00000000E+00
  0.00000000E+00  0.00000000E+00  0.00000000E+00
  0.00000000E+00  0.00000000E+00  0.00000000E+00
  0.00000000E+00  0.00000000E+00  0.00000000E+00
  0.00000000E+00  0.00000000E+00  0.00000000E+00
  0.00000000E+00  0.00000000E+00  0.00000000E+00
  0.00000000E+00  0.00000000E+00  0.00000000E+00
  0.00000000E+00  0.00000000E+00  0.00000000E+00
  0.00000000E+00  0.00000000E+00  0.00000000E+00
  0.00000000E+00  0.00000000E+00  0.00000000E+00
  0.00000000E+00  0.00000000E+00  0.00000000E+00
  0.00000000E+00  0.00000000E+00  0.00000000E+00
  0.00000000E+00  0.00000000E+00  0.00000000E+00
  0.00000000E+00  0.00000000E+00  0.00000000E+00
  0.00000000E+00  0.00000000E+00  0.00000000E+00
  0.00000000E+00  0.00000000E+00  0.00000000E+00
  0.00000000E+00  0.00000000E+00  0.00000000E+00
  0.00000000E+00  0.00000000E+00  0.00000000E+00
  0.00000000E+00  0.00000000E+00  0.00000000E+00
  0.00000000E+00  0.00000000E+00  0.00000000E+00
  0.00000000E+00  0.00000000E+00  0.00000000E+00
  0.00000000E+00  0.00000000E+00  0.00000000E+00
  0.00000000E+00  0.00000000E+00  0.00000000E+00
  0.00000000E+00  0.00000000E+00  0.00000000E+00
  0.00000000E+00  0.00000000E+00  0.00000000E+00
