B2 Mo
1.0
        6.0780000687         0.0000000000         0.0000000000
       -3.0390007352         5.2637020590         0.0000000000
        0.0000000000         0.0000000000        18.3299999237
   Mo    V    B
   6    1   16
Cartesian
    0.000000    0.000000    7.637500
  -1.519500    2.631851   10.692499
  -1.519500    2.631851    7.637500
   3.039000    0.000000   10.692499
   3.039000    0.000000    7.637500
   1.519500    2.631851   10.692499
  1.519500    2.631851    7.637500
 -0.000000    1.754567   12.220000
 -0.000000    1.754567    9.165000
 -1.519501    4.386418   12.220000
 -1.519501    4.386418    9.165000
  3.039000    1.754567   12.220000
  3.039000    1.754567    9.165000
  1.519499    4.386418   12.220000
  1.519499    4.386418    9.165000
  1.519500    0.877284   12.220000
  1.519500    0.877284    9.165000
 -0.000000    3.509134   12.220000
 -0.000000    3.509134    9.165000
  4.558499    0.877284   12.220000
  4.558499    0.877284    9.165000
  3.038999    3.509134   12.220000
  3.038999    3.509134    9.165000
