MoB2                                    
   1.0000000000000000     
     8.6453199387000002    0.0000000000000000    0.0000000000000000
    -2.1414606584000002    5.6957327634999997    0.0000000000000000
    -0.2384319305000000   -9.8409511943000005   23.9952660313000017
   Mo   V    B 
    10     4    32
Selective dynamics
Direct
  0.9965819587012742  0.4965547822536288  0.5000768188624349   T   T   T
  0.5000000420406607  0.0000000106198357  0.3333333328985262   F   F   F
  0.5017693610197080  0.9995509323552961  0.4989330535291275   T   T   T
  0.2499999645194322  0.0000000211648654  0.4166666452857157   F   F   F
  0.2435085980549144  0.9905083397332695  0.5790630857121500   T   T   T
  0.2499999859959132  0.4999999541410034  0.4166666452857157   F   F   F
  0.2419763177759687  0.4910221191864244  0.5795775751505692   T   T   T
  0.7429812712365594  0.9904017123618294  0.5793634061560287   T   T   T
  0.7499999895411875  0.4999999541410034  0.4166666452857157   F   F   F
  0.7434183558361911  0.4910034609302611  0.5793188656658863   T   T   T
  0.0000000384953864  0.0000000106198357  0.3333333328985262   F   F   F
  0.9975972088708271  0.0010387849596651  0.4988901410758272   T   T   T
  0.4999999478476198  0.4999999435959737  0.3333333328985262   F   F   F
  0.4969375147020975  0.4961837477475969  0.4978519516358690   T   T   T
  0.4583333285167654  0.3333333147988853  0.4027777807252946   F   F   F
  0.4580826318696622  0.3579408299176544  0.5855280995259050   T   T   T
  0.4583333499932465  0.8333332477750233  0.4027777807252946   F   F   F
  0.4588223970885553  0.8587492951914797  0.5859749676061329   T   T   T
  0.9583334477315546  0.3333333147988853  0.4027777807252946   F   F   F
  0.9568317410700529  0.3538001446699878  0.5835381847785268   T   T   T
  0.9583333535385137  0.8333332477750233  0.4027777807252946   F   F   F
  0.9582716480976732  0.8615447395923727  0.5881311796544163   T   T   T
  0.2083333666650589  0.3333333253439150  0.4861110931124770   F   F   F
  0.2083333835076218  0.3333332322489824  0.3194444266632175   F   F   F
  0.2047020105217352  0.8377800054076586  0.4882231171635512   T   T   T
  0.2083333328035835  0.8333333407951500  0.3194444266632175   F   F   F
  0.7079756196396916  0.3305568458982530  0.4859875941173713   T   T   T
  0.7083333870528890  0.3333332322489824  0.3194444266632175   F   F   F
  0.7118816057950028  0.8377334821780311  0.4854264805624054   T   T   T
  0.7083333363488507  0.8333333407951500  0.3194444266632175   F   F   F
  0.0416666409836779  0.1666667325118567  0.4305555515210244   F   F   F
  0.0398428117351631  0.1678953330713405  0.5978773099655593   T   T   T
  0.0416666624601589  0.6666666654880018  0.4305555515210244   F   F   F
  0.0401149321205955  0.6694732037176642  0.6002566205937335   T   T   T
  0.5416666445289522  0.1666667325118567  0.4305555515210244   F   F   F
  0.5408647835937205  0.1712519553273272  0.6000024196117268   T   T   T
  0.5416666660054332  0.6666666654880018  0.4305555515210244   F   F   F
  0.5402814239815935  0.6674061630570263  0.5980490176305870   T   T   T
  0.2916666995198085  0.1666666499619538  0.3472221974589473   F   F   F
  0.2945869822825974  0.1733599874782743  0.5151688412797701   T   T   T
  0.2916667209962895  0.6666665829380918  0.3472221974589473   F   F   F
  0.2976800851023619  0.6700303863557876  0.5153036218743261   T   T   T
  0.7916664717260460  0.1666666499619538  0.3472221974589473   F   F   F
  0.7952488366017973  0.1644536929727154  0.5123577975241680   T   T   T
  0.7916664932025199  0.6666665829380918  0.3472221974589473   F   F   F
  0.7918484893788910  0.6694790875907386  0.5141766479639119   T   T   T

  0.00000000E+00  0.00000000E+00  0.00000000E+00
  0.00000000E+00  0.00000000E+00  0.00000000E+00
  0.00000000E+00  0.00000000E+00  0.00000000E+00
  0.00000000E+00  0.00000000E+00  0.00000000E+00
  0.00000000E+00  0.00000000E+00  0.00000000E+00
  0.00000000E+00  0.00000000E+00  0.00000000E+00
  0.00000000E+00  0.00000000E+00  0.00000000E+00
  0.00000000E+00  0.00000000E+00  0.00000000E+00
  0.00000000E+00  0.00000000E+00  0.00000000E+00
  0.00000000E+00  0.00000000E+00  0.00000000E+00
  0.00000000E+00  0.00000000E+00  0.00000000E+00
  0.00000000E+00  0.00000000E+00  0.00000000E+00
  0.00000000E+00  0.00000000E+00  0.00000000E+00
  0.00000000E+00  0.00000000E+00  0.00000000E+00
  0.00000000E+00  0.00000000E+00  0.00000000E+00
  0.00000000E+00  0.00000000E+00  0.00000000E+00
  0.00000000E+00  0.00000000E+00  0.00000000E+00
  0.00000000E+00  0.00000000E+00  0.00000000E+00
  0.00000000E+00  0.00000000E+00  0.00000000E+00
  0.00000000E+00  0.00000000E+00  0.00000000E+00
  0.00000000E+00  0.00000000E+00  0.00000000E+00
  0.00000000E+00  0.00000000E+00  0.00000000E+00
  0.00000000E+00  0.00000000E+00  0.00000000E+00
  0.00000000E+00  0.00000000E+00  0.00000000E+00
  0.00000000E+00  0.00000000E+00  0.00000000E+00
  0.00000000E+00  0.00000000E+00  0.00000000E+00
  0.00000000E+00  0.00000000E+00  0.00000000E+00
  0.00000000E+00  0.00000000E+00  0.00000000E+00
  0.00000000E+00  0.00000000E+00  0.00000000E+00
  0.00000000E+00  0.00000000E+00  0.00000000E+00
  0.00000000E+00  0.00000000E+00  0.00000000E+00
  0.00000000E+00  0.00000000E+00  0.00000000E+00
  0.00000000E+00  0.00000000E+00  0.00000000E+00
  0.00000000E+00  0.00000000E+00  0.00000000E+00
  0.00000000E+00  0.00000000E+00  0.00000000E+00
  0.00000000E+00  0.00000000E+00  0.00000000E+00
  0.00000000E+00  0.00000000E+00  0.00000000E+00
  0.00000000E+00  0.00000000E+00  0.00000000E+00
  0.00000000E+00  0.00000000E+00  0.00000000E+00
  0.00000000E+00  0.00000000E+00  0.00000000E+00
  0.00000000E+00  0.00000000E+00  0.00000000E+00
  0.00000000E+00  0.00000000E+00  0.00000000E+00
  0.00000000E+00  0.00000000E+00  0.00000000E+00
  0.00000000E+00  0.00000000E+00  0.00000000E+00
  0.00000000E+00  0.00000000E+00  0.00000000E+00
  0.00000000E+00  0.00000000E+00  0.00000000E+00
