 2 Mo0.5b2                              
   1.0000000000000000     
     6.0780000686999998    0.0000000000000000    0.0000000000000000
    -3.0390007352000001    5.2637020589999999    0.0000000000000000
     0.0000000000000000    0.0000000000000000   18.3299999237000009
   Mo   V    B    H 
     4     3    16     1
Direct
 -0.0006726441843612  0.0011597369467800  0.2590660603441157
  0.9964501629759682  0.0029717965554213  0.4179163294362032
  0.4990072214611581  0.5017889874225311  0.2590610975773814
  0.5003724834384704  0.4990319613895739  0.4179494222142269
  0.9978344525151057  0.5003373323712547  0.4145070281880550
  0.4969204675633508  0.9995211318917974  0.2614275590348987
  0.5004601157976423  0.0030673196328196  0.4190890129273357
  0.1593554539285177  0.3411492005830717  0.3282444065781262
  0.1642201584472392  0.3327881264656672  0.5018125859507462
  0.8386215282221434  0.6617458872856655  0.3283468506804192
  0.8301326667706452  0.6669435598827845  0.5019020698299224
  0.6625203898795924  0.8375770264255016  0.3338620671119256
  0.6657855737400249  0.8367298784549202  0.5030931180652851
  0.3350609155623306  0.1649764451744486  0.3338730421999088
  0.3339887194352051  0.1684393992876742  0.5031720998586701
  0.1648760231859575  0.8276167378860614  0.3303681635419702
  0.1673685052657904  0.8352676009181338  0.5032806972023095
  0.8323834125147250  0.1740151293832758  0.3302287956398075
  0.8313824020698924  0.1683913468963494  0.5026589098134346
  0.6715765044814155  0.3348689342020456  0.3302730330328499
  0.6656733756138556  0.3340369063056252  0.5027759659820284
  0.3251940977447416  0.6673112917018459  0.3302687870312282
  0.3325225406169674  0.6701548281895969  0.5031669412278661
  0.2427539997260553  0.7450229926917480  0.5602510509843056

  0.00000000E+00  0.00000000E+00  0.00000000E+00
  0.00000000E+00  0.00000000E+00  0.00000000E+00
  0.00000000E+00  0.00000000E+00  0.00000000E+00
  0.00000000E+00  0.00000000E+00  0.00000000E+00
  0.00000000E+00  0.00000000E+00  0.00000000E+00
  0.00000000E+00  0.00000000E+00  0.00000000E+00
  0.00000000E+00  0.00000000E+00  0.00000000E+00
  0.00000000E+00  0.00000000E+00  0.00000000E+00
  0.00000000E+00  0.00000000E+00  0.00000000E+00
  0.00000000E+00  0.00000000E+00  0.00000000E+00
  0.00000000E+00  0.00000000E+00  0.00000000E+00
  0.00000000E+00  0.00000000E+00  0.00000000E+00
  0.00000000E+00  0.00000000E+00  0.00000000E+00
  0.00000000E+00  0.00000000E+00  0.00000000E+00
  0.00000000E+00  0.00000000E+00  0.00000000E+00
  0.00000000E+00  0.00000000E+00  0.00000000E+00
  0.00000000E+00  0.00000000E+00  0.00000000E+00
  0.00000000E+00  0.00000000E+00  0.00000000E+00
  0.00000000E+00  0.00000000E+00  0.00000000E+00
  0.00000000E+00  0.00000000E+00  0.00000000E+00
  0.00000000E+00  0.00000000E+00  0.00000000E+00
  0.00000000E+00  0.00000000E+00  0.00000000E+00
  0.00000000E+00  0.00000000E+00  0.00000000E+00
  0.00000000E+00  0.00000000E+00  0.00000000E+00
