MoB2                                    
   1.0000000000000000     
     8.6453199387000002    0.0000000000000000    0.0000000000000000
    -2.1414606584000002    5.6957327634999997    0.0000000000000000
    -0.2384319305000000   -9.8409511943000005   23.9952660313000017
   Mo   V    B    H 
    10     4    32     1
Selective dynamics
Direct
  0.9966269648773647  0.4965651677250591  0.5000469762389201   F   F   F
  0.5000000575862842  0.0000000091937835  0.3333333389830599   F   F   F
  0.5017051168610820  0.9994196542490101  0.4989090978355506   F   F   F
  0.2499999674573914  0.9999999828311985  0.4166666389511278   F   F   F
  0.2433809098688116  0.9903686153180971  0.5790304447917478   F   F   F
  0.2499999671656354  0.4999999259904016  0.4166666389511278   F   F   F
  0.2419109418493122  0.4909178149260782  0.5795235122153244   F   F   F
  0.7429525957864058  0.9902676250183120  0.5793385026390894   F   F   F
  0.7499999671251487  0.4999999259904016  0.4166666389511278   F   F   F
  0.7433504360197887  0.4910215411887151  0.5793075021076106   F   F   F
  0.0000000024524098  0.0000000091937835  0.3333333389830599   F   F   F
  0.9976098103561313  0.0010857704336189  0.4988688368941325   F   F   F
  0.4999999470614753  0.4999999523529866  0.3333333389830599   F   F   F
  0.4970472423821306  0.4961766626532409  0.4978373538521197   F   F   F
  0.4583333514377586  0.3333333476254126  0.4027778053134767   F   F   F
  0.4579118293107598  0.3579136286302287  0.5855621770007460   F   F   F
  0.4583333409112882  0.8333332489989402  0.4027778053134767   F   F   F
  0.4587358354937123  0.8587319249609564  0.5860041332593724   F   F   F
  0.9583334617459940  0.3333333476254126  0.4027778053134767   F   F   F
  0.9567594292660786  0.3536730092858207  0.5835239716340581   F   F   F
  0.9583333960451625  0.8333332489989402  0.4027778053134767   F   F   F
  0.9582359055298895  0.8617664236744673  0.5882813209316708   F   F   F
  0.2083333935412526  0.3333333287021674  0.4861110854026265   F   F   F
  0.2083333864437051  0.3333332157098567  0.3194444258297224   F   F   F
  0.2046428809540402  0.8378757252154045  0.4882271497935662   F   F   F
  0.2083333174373436  0.8333333054700418  0.3194444258297224   F   F   F
  0.7080669358986640  0.3306145361309660  0.4859658200825621   F   F   F
  0.7083334002835642  0.3333332157098567  0.3194444258297224   F   F   F
  0.7118879238306945  0.8376462861171134  0.4854098374990556   F   F   F
  0.7083333260720721  0.8333333054700418  0.3194444258297224   F   F   F
  0.0416666322291661  0.1666666985094878  0.4305555520627919   F   F   F
  0.0398716156970451  0.1678598693826530  0.5978550795097277   F   F   F
  0.0416666605077793  0.6666666416686908  0.4305555520627919   F   F   F
  0.0400224288341988  0.6692935784280039  0.6001979247162268   F   F   F
  0.5416666193493640  0.1666666985094878  0.4305555520627919   F   F   F
  0.5407264622301327  0.1711529724205434  0.5999775029883239   F   F   F
  0.5416666742319691  0.6666666416686908  0.4305555520627919   F   F   F
  0.5402329668476256  0.6673480310361128  0.5980401685599688   F   F   F
  0.2916666823700567  0.1666666219051010  0.3472221924996362   F   F   F
  0.2945662391866293  0.1732193452254407  0.5151307611208154   F   F   F
  0.2916667131376016  0.6666665232786357  0.3472221924996362   F   F   F
  0.2976680905976750  0.6700012299646829  0.5152232062721680   F   F   F
  0.7916664065734409  0.1666666219051010  0.3472221924996362   F   F   F
  0.7950458371338556  0.1642564029028648  0.5123132501204424   F   F   F
  0.7916664512213316  0.6666665232786357  0.3472221924996362   F   F   F
  0.7917917012462894  0.6693971904762037  0.5141378697742880   F   F   F
  0.6645279186345405  0.2899279144841813  0.6402856539946684   F   F   T

  0.00000000E+00  0.00000000E+00  0.00000000E+00
  0.00000000E+00  0.00000000E+00  0.00000000E+00
  0.00000000E+00  0.00000000E+00  0.00000000E+00
  0.00000000E+00  0.00000000E+00  0.00000000E+00
  0.00000000E+00  0.00000000E+00  0.00000000E+00
  0.00000000E+00  0.00000000E+00  0.00000000E+00
  0.00000000E+00  0.00000000E+00  0.00000000E+00
  0.00000000E+00  0.00000000E+00  0.00000000E+00
  0.00000000E+00  0.00000000E+00  0.00000000E+00
  0.00000000E+00  0.00000000E+00  0.00000000E+00
  0.00000000E+00  0.00000000E+00  0.00000000E+00
  0.00000000E+00  0.00000000E+00  0.00000000E+00
  0.00000000E+00  0.00000000E+00  0.00000000E+00
  0.00000000E+00  0.00000000E+00  0.00000000E+00
  0.00000000E+00  0.00000000E+00  0.00000000E+00
  0.00000000E+00  0.00000000E+00  0.00000000E+00
  0.00000000E+00  0.00000000E+00  0.00000000E+00
  0.00000000E+00  0.00000000E+00  0.00000000E+00
  0.00000000E+00  0.00000000E+00  0.00000000E+00
  0.00000000E+00  0.00000000E+00  0.00000000E+00
  0.00000000E+00  0.00000000E+00  0.00000000E+00
  0.00000000E+00  0.00000000E+00  0.00000000E+00
  0.00000000E+00  0.00000000E+00  0.00000000E+00
  0.00000000E+00  0.00000000E+00  0.00000000E+00
  0.00000000E+00  0.00000000E+00  0.00000000E+00
  0.00000000E+00  0.00000000E+00  0.00000000E+00
  0.00000000E+00  0.00000000E+00  0.00000000E+00
  0.00000000E+00  0.00000000E+00  0.00000000E+00
  0.00000000E+00  0.00000000E+00  0.00000000E+00
  0.00000000E+00  0.00000000E+00  0.00000000E+00
  0.00000000E+00  0.00000000E+00  0.00000000E+00
  0.00000000E+00  0.00000000E+00  0.00000000E+00
  0.00000000E+00  0.00000000E+00  0.00000000E+00
  0.00000000E+00  0.00000000E+00  0.00000000E+00
  0.00000000E+00  0.00000000E+00  0.00000000E+00
  0.00000000E+00  0.00000000E+00  0.00000000E+00
  0.00000000E+00  0.00000000E+00  0.00000000E+00
  0.00000000E+00  0.00000000E+00  0.00000000E+00
  0.00000000E+00  0.00000000E+00  0.00000000E+00
  0.00000000E+00  0.00000000E+00  0.00000000E+00
  0.00000000E+00  0.00000000E+00  0.00000000E+00
  0.00000000E+00  0.00000000E+00  0.00000000E+00
  0.00000000E+00  0.00000000E+00  0.00000000E+00
  0.00000000E+00  0.00000000E+00  0.00000000E+00
  0.00000000E+00  0.00000000E+00  0.00000000E+00
  0.00000000E+00  0.00000000E+00  0.00000000E+00
  0.00000000E+00  0.00000000E+00  0.00000000E+00
