MoVB2                                   
   1.0000000000000000     
     6.0809535458356265   -0.0038364727517503    0.0000000000000000
    -3.0437992558317712    5.2643420136265675    0.0000000000000000
     0.0000000000000000    0.0000000000000000    9.4043370832249451
   Mo   V    B 
     6     6    24
Direct
  0.0000000000000000  0.0000000000000000 -0.0000000000000000
  0.0000000000000000  0.0000000000000000  0.3333333506082781
  0.0000000000000000  0.0000000000000000  0.6666667012165561
  0.4999999910163027  0.4999999818682568 -0.0000000000000000
  0.4999999910163027  0.4999999818682568  0.3333333506082781
  0.4999999910163027  0.4999999818682568  0.6666667012165561
  0.9999999908601751  0.4999999818682568  0.0000000000000000
  0.9999999908601751  0.4999999818682568  0.3333333506082781
  0.9999999908601751  0.4999999818682568  0.6666667012165561
  0.4999999999917861  0.0000000000000000 -0.0000000000000000
  0.4999999999917861  0.0000000000000000  0.3333333506082781
  0.4999999999917861  0.0000000000000000  0.6666667012165561
  0.1638659644140430  0.3361340401334879  0.1666666752498642
  0.1638659644140430  0.3361340401334879  0.5000000000217142
  0.1638659644140430  0.3361340401334879  0.8333332988485793
  0.8361339947776757  0.6638658782499640  0.1666666752498642
  0.8361339947776757  0.6638658782499640  0.5000000000217142
  0.8361339947776757  0.6638658782499640  0.8333332988485793
  0.6638659160585546  0.8361340218119870  0.1666666752498642
  0.6638659160585546  0.8361340218119870  0.5000000000217142
  0.6638659160585546  0.8361340218119870  0.8333332988485793
  0.3361340378930822  0.1638659643164281  0.1666666752498642
  0.3361340378930822  0.1638659643164281  0.5000000000217142
  0.3361340378930822  0.1638659643164281  0.8333332988485793
  0.1689193690154883  0.8310806276964676  0.1666666752498642
  0.1689193690154883  0.8310806276964676  0.5000000000217142
  0.1689193690154883  0.8310806276964676  0.8333332988485793
  0.8310806044924375  0.1689193584319477  0.1666666752498642
  0.8310806044924375  0.1689193584319477  0.5000000000217142
  0.8310806044924375  0.1689193584319477  0.8333332988485793
  0.6689193585213475  0.3310806460179682  0.1666666752498642
  0.6689193585213475  0.3310806460179682  0.5000000000217142
  0.6689193585213475  0.3310806460179682  0.8333332988485793
  0.3310806006703783  0.6689192723654834  0.1666666752498642
  0.3310806006703783  0.6689192723654834  0.5000000000217142
  0.3310806006703783  0.6689192723654834  0.8333332988485793

  0.00000000E+00  0.00000000E+00  0.00000000E+00
  0.00000000E+00  0.00000000E+00  0.00000000E+00
  0.00000000E+00  0.00000000E+00  0.00000000E+00
  0.00000000E+00  0.00000000E+00  0.00000000E+00
  0.00000000E+00  0.00000000E+00  0.00000000E+00
  0.00000000E+00  0.00000000E+00  0.00000000E+00
  0.00000000E+00  0.00000000E+00  0.00000000E+00
  0.00000000E+00  0.00000000E+00  0.00000000E+00
  0.00000000E+00  0.00000000E+00  0.00000000E+00
  0.00000000E+00  0.00000000E+00  0.00000000E+00
  0.00000000E+00  0.00000000E+00  0.00000000E+00
  0.00000000E+00  0.00000000E+00  0.00000000E+00
  0.00000000E+00  0.00000000E+00  0.00000000E+00
  0.00000000E+00  0.00000000E+00  0.00000000E+00
  0.00000000E+00  0.00000000E+00  0.00000000E+00
  0.00000000E+00  0.00000000E+00  0.00000000E+00
  0.00000000E+00  0.00000000E+00  0.00000000E+00
  0.00000000E+00  0.00000000E+00  0.00000000E+00
  0.00000000E+00  0.00000000E+00  0.00000000E+00
  0.00000000E+00  0.00000000E+00  0.00000000E+00
  0.00000000E+00  0.00000000E+00  0.00000000E+00
  0.00000000E+00  0.00000000E+00  0.00000000E+00
  0.00000000E+00  0.00000000E+00  0.00000000E+00
  0.00000000E+00  0.00000000E+00  0.00000000E+00
  0.00000000E+00  0.00000000E+00  0.00000000E+00
  0.00000000E+00  0.00000000E+00  0.00000000E+00
  0.00000000E+00  0.00000000E+00  0.00000000E+00
  0.00000000E+00  0.00000000E+00  0.00000000E+00
  0.00000000E+00  0.00000000E+00  0.00000000E+00
  0.00000000E+00  0.00000000E+00  0.00000000E+00
  0.00000000E+00  0.00000000E+00  0.00000000E+00
  0.00000000E+00  0.00000000E+00  0.00000000E+00
  0.00000000E+00  0.00000000E+00  0.00000000E+00
  0.00000000E+00  0.00000000E+00  0.00000000E+00
  0.00000000E+00  0.00000000E+00  0.00000000E+00
  0.00000000E+00  0.00000000E+00  0.00000000E+00
