B2 Mo                                   
   1.0000000000000000     
     6.0715007781999999    0.0000000000000000    0.0000000000000000
    -3.0336328745999999    5.2592958921999999    0.0000000000000000
     0.0000000000000000    0.0000000000000000   25.8633270264000004
   Mo   V    B    H 
    12     4    34     4
Direct
  0.0004750616639489 -0.0006941868169542  0.0685938336310409
  0.0019239244918686 -0.0052906918539096  0.3094423525938735
  0.0010260372384135  0.5041792539493727  0.1873558868666815
  0.0164202473023663  0.5161791371147217  0.4336260418980813
  0.0002656768710711  0.4993532481712041  0.0654479037451862
  0.9991726499350363  0.4929439517351198  0.3081320689582147
  0.4999616327142311 -0.0011011271964405  0.1873565079330105
  0.4862162880919739 -0.0142907036575551  0.4334957255821733
  0.5009714579072952  0.0003780583929006  0.0654373395920792
  0.5030596791070435  0.0056878944562946  0.3081122853948622
  0.5014591153440939  0.4995236151391497  0.1867638289540545
  0.4930569992880091  0.4906572031423413  0.4328203135558157
  0.0003075031858171  0.0046670059769948  0.1866064391033963
  0.0133409183241414  0.0145995582429450  0.4329303376233922
  0.5005025797919028  0.5006772235394535  0.0689221546577951
  0.4971715242865227  0.5058707734048865  0.3081915830107561
  0.1686689778862832  0.3319735556825430  0.2474396285842177
  0.1694886593018275  0.3323483274547025  0.4972953883430681
  0.1668894602689169  0.3313663730400188  0.1230779667925297
  0.1672127597227108  0.3329426297329250  0.3718473093870003
  0.1658261796250427  0.8355296018795918  0.2466287880408013
  0.1680100528697392  0.8344366439578179  0.4978272883726112
  0.1662801302281776  0.8346654095269447  0.1233019251497620
  0.1659091309421277  0.8348442505549565  0.3719027291995879
  0.6620737814408213  0.3377155241420195  0.0168506484642169
  0.6699123377889277  0.3336115160832388  0.4972588133734317
  0.6655329961624851  0.3357596444979198  0.2489732149278960
  0.6657290006788554  0.3350390791822913  0.1247566246979446
  0.6670445078740105  0.3354475813500821  0.3726567492287378
  0.6691411132729903  0.8325741417590239  0.2475037064774594
  0.6704135952149229  0.8332884261418694  0.4959836530398354
  0.6693457581824445  0.8338961294258692  0.1230954319373891
  0.6691721082997298  0.8342354321410730  0.3731664050961181
  0.3319578697792744  0.1682219700689593  0.2475439020659419
  0.3335518378897103  0.1699001935349582  0.4975418395433360
  0.3316633778442824  0.1666412022282250  0.1229827454284961
  0.3348741396108474  0.1676080742251272  0.3717157748831946
  0.3392187234071442  0.6605778179558027  0.0169615866613286
  0.3335354008850269  0.6701445013991487  0.4988695432066205
  0.3354748508667066  0.6656752409758370  0.2491514190276135
  0.3352615272444906  0.6654980275086326  0.1247435495935865
  0.3370892273765427  0.6656629779162749  0.3706325145539763
  0.8358077790606743  0.1654713768699402  0.2461929695902951
  0.8341900578729824  0.1677073033965341  0.4953498171111224
  0.8349077617056957  0.1659942258882464  0.1234461335700141
  0.8354869954121218  0.1660763923848972  0.3742966289212250
  0.8327505144625240  0.6687981590431061  0.2476442125643321
  0.8328502108567738  0.6686798029589160  0.4964561118761763
  0.8341745888913282  0.6690800675417268  0.1230114732687765
  0.8340880672124316  0.6673729585447655  0.3731192437363824
  0.2507834893666591  0.7548011794320580  0.5383441466628588
  0.2534658933094365  0.2545679422997390  0.5375851575815297
  0.7545480644408452  0.2473212939441291  0.5360400162499532
  0.7492684431128306  0.7507511626116730  0.5362094124671790

  0.00000000E+00  0.00000000E+00  0.00000000E+00
  0.00000000E+00  0.00000000E+00  0.00000000E+00
  0.00000000E+00  0.00000000E+00  0.00000000E+00
  0.00000000E+00  0.00000000E+00  0.00000000E+00
  0.00000000E+00  0.00000000E+00  0.00000000E+00
  0.00000000E+00  0.00000000E+00  0.00000000E+00
  0.00000000E+00  0.00000000E+00  0.00000000E+00
  0.00000000E+00  0.00000000E+00  0.00000000E+00
  0.00000000E+00  0.00000000E+00  0.00000000E+00
  0.00000000E+00  0.00000000E+00  0.00000000E+00
  0.00000000E+00  0.00000000E+00  0.00000000E+00
  0.00000000E+00  0.00000000E+00  0.00000000E+00
  0.00000000E+00  0.00000000E+00  0.00000000E+00
  0.00000000E+00  0.00000000E+00  0.00000000E+00
  0.00000000E+00  0.00000000E+00  0.00000000E+00
  0.00000000E+00  0.00000000E+00  0.00000000E+00
  0.00000000E+00  0.00000000E+00  0.00000000E+00
  0.00000000E+00  0.00000000E+00  0.00000000E+00
  0.00000000E+00  0.00000000E+00  0.00000000E+00
  0.00000000E+00  0.00000000E+00  0.00000000E+00
  0.00000000E+00  0.00000000E+00  0.00000000E+00
  0.00000000E+00  0.00000000E+00  0.00000000E+00
  0.00000000E+00  0.00000000E+00  0.00000000E+00
  0.00000000E+00  0.00000000E+00  0.00000000E+00
  0.00000000E+00  0.00000000E+00  0.00000000E+00
  0.00000000E+00  0.00000000E+00  0.00000000E+00
  0.00000000E+00  0.00000000E+00  0.00000000E+00
  0.00000000E+00  0.00000000E+00  0.00000000E+00
  0.00000000E+00  0.00000000E+00  0.00000000E+00
  0.00000000E+00  0.00000000E+00  0.00000000E+00
  0.00000000E+00  0.00000000E+00  0.00000000E+00
  0.00000000E+00  0.00000000E+00  0.00000000E+00
  0.00000000E+00  0.00000000E+00  0.00000000E+00
  0.00000000E+00  0.00000000E+00  0.00000000E+00
  0.00000000E+00  0.00000000E+00  0.00000000E+00
  0.00000000E+00  0.00000000E+00  0.00000000E+00
  0.00000000E+00  0.00000000E+00  0.00000000E+00
  0.00000000E+00  0.00000000E+00  0.00000000E+00
  0.00000000E+00  0.00000000E+00  0.00000000E+00
  0.00000000E+00  0.00000000E+00  0.00000000E+00
  0.00000000E+00  0.00000000E+00  0.00000000E+00
  0.00000000E+00  0.00000000E+00  0.00000000E+00
  0.00000000E+00  0.00000000E+00  0.00000000E+00
  0.00000000E+00  0.00000000E+00  0.00000000E+00
  0.00000000E+00  0.00000000E+00  0.00000000E+00
  0.00000000E+00  0.00000000E+00  0.00000000E+00
  0.00000000E+00  0.00000000E+00  0.00000000E+00
  0.00000000E+00  0.00000000E+00  0.00000000E+00
  0.00000000E+00  0.00000000E+00  0.00000000E+00
  0.00000000E+00  0.00000000E+00  0.00000000E+00
  0.00000000E+00  0.00000000E+00  0.00000000E+00
  0.00000000E+00  0.00000000E+00  0.00000000E+00
  0.00000000E+00  0.00000000E+00  0.00000000E+00
  0.00000000E+00  0.00000000E+00  0.00000000E+00
