VB2                                   
1.0
        8.7336034775         0.0000000000         0.0000000000
       -2.1192828999         5.6981405836         0.0000000000
        0.6742611349         8.3713961889        20.1541324356
   Mo    V    B
    8    8   32
Cartesian
     0.269704461         3.348558426         8.061653137
     4.501654148         1.674279213         4.030826569
     6.752480507         2.511418581         6.046239376
     2.520531178         4.185698032        10.077066422
     1.326037884         5.360488892         6.046239376
     5.827691078         7.034768105        10.077066422
    -0.924789131         4.523349285         4.030826569
     3.576864243         6.197628498         8.061653137
    -0.789936900         6.197628498         8.061653137
     3.442012548         4.523349285         4.030826569
     5.692839146         5.360488892         6.046239376
     1.460889816         7.034768105        10.077066422
     2.385679245         2.511418581         6.046239376
     6.887332916         4.185698032        10.077066422
     0.134852231         1.674279213         4.030826569
     4.636505604         3.348558426         8.061653137
     1.377627850         5.406484604         8.407956123
     5.609576702         3.732204914         4.377129078
     7.860403538         4.569344997         6.392542839
     3.628454685         6.243624210        10.423370361
     3.525274754         6.151633263         5.699936867
    -0.706674755         7.825911999         9.730762482
     1.274447799         5.314493656         3.684523821
     5.776102066         6.988772392         7.715350151
     2.433960915         7.418415070         6.392542839
     6.935614586         9.092694283        10.423370361
     0.183133826         6.581275940         4.377129555
     4.684787750         8.255555153         8.407956123
     2.468941450         4.139702797         7.715350151
     6.700891495         2.465423584         3.684523821
     0.218114480         3.302563190         5.699936867
     4.719768047         4.976842403         9.730762482
     0.347962409         8.220758438         8.388931274
     4.579911709         6.546479225         4.358104706
     6.830739021         7.383618355         6.373517513
     2.598789692         9.057897568        10.404344559
     4.554939747         3.337359190         5.718961716
     0.322990507         5.011638165         9.749787331
     2.304113150         2.500219345         3.703548193
     6.805767059         4.174498558         7.734374523
     3.523578882         4.534548759         6.373517513
     8.025233269         6.208828449        10.404344559
     1.272751570         3.697409391         4.358104706
     5.774405479         5.371688843         8.388931274
     1.379324079         7.023568630         7.734374523
     5.611273766         5.349289417         3.703548193
    -0.871502936         6.186429024         5.718961716
     3.630150557         7.860708237         9.749787331
