B2 V                                    
   1.0000000000000000     
     2.9937856357622534    0.0000000000004567    0.0000000000000000
    -1.4968928178305001    2.5926944140357349   -0.0000000000000000
     0.0000000000000000   -0.0000000000000000    3.0219756850803656
   V    B 
     1     2
Direct
  0.0000000000000000  0.0000000000000000  0.0000000000000000
  0.3333333321209508  0.6666666642642696  0.4999999999508162
  0.6666666144153908  0.3333333090768704  0.4999999999508162

  