B2 Mo                                   
   1.0000000000000000     
     6.0880565643000004    0.0000000000000000    0.0000000000000000
    -3.0505411110999998    5.2686460937000001    0.0000000000000000
     0.0000000000000000    0.0000000000000000   23.7224636078000017
   Mo   V    B 
    10     4    40
Direct
  0.9999999225407805  0.4999999911077708  0.0702558167504948
  0.9999999225407805  0.4999999911077708  0.3320250777691645
  0.9999999225407805  0.4999999911077708  0.1990578540470388
  0.9999999225407805  0.4999999911077708  0.4605301027898880
  0.4999999536551627 -0.0000000000000000  0.0702558167504948
  0.4999999536551627 -0.0000000000000000  0.3320250777691645
  0.4999999536551627 -0.0000000000000000  0.1990578540470388
  0.4999999536551627 -0.0000000000000000  0.4605301027898880
  0.5000000404519724  0.4999999911077708  0.0695258918330047
  0.5000000404519724  0.4999999911077708  0.3313570270585816
 -0.0000000000000000 -0.0000000000000000  0.0708004255178594
 -0.0000000000000000 -0.0000000000000000  0.3309369875277470
  0.5000000404519724  0.4999999911077708  0.1998362849673295
  0.5000000404519724  0.4999999911077708  0.4638786472944558
  0.1654203624121815  0.3261246059098034  0.1363807698532742
  0.1656012746559649  0.3260769221643787  0.3998912101142865
  0.1653839892132817  0.3312440534939927  0.0019716403935550
  0.1650569994797976  0.3289131072293151  0.5260567879511094
  0.1652014576078776  0.3267910375217071  0.2634316488477886
  0.1618136147322739  0.8381863306928501  0.1351887764125914
  0.1609593091013875  0.8390406363237364  0.3988025232072405
  0.1659364488744751  0.8340634965506487  0.0017054787059785
  0.1672016501909530  0.8327982952341708  0.5285499841106879
  0.1631357746404412  0.8368641707846827  0.2645437395634130
  0.6648540397567689  0.3351461244067261  0.1347412379376692
  0.6649345757190597  0.3350655884444358  0.3971820851734210
  0.6667699238789579  0.3332302402845373  0.0008734229550381
  0.6665720232836625  0.3334281408798330  0.5253569027503735
  0.6655134608098049  0.3344867033536902  0.2642584001734762
  0.6738753967434910  0.8345796149926165  0.1363807698532742
  0.6739230804889157  0.8343987027488331  0.3998912101142865
  0.6687559491593020  0.8346159881915162  0.0019716403935550
  0.6710868954239795  0.8349429779250003  0.5260567879511094
  0.6732089651315875  0.8347985197969202  0.2634316488477886
  0.3261245199044246  0.1654203672229253  0.1363807698532742
  0.3260768361589999  0.1656012794667087  0.3998912101142865
  0.3312439674886138  0.1653839940240255  0.0019716403935550
  0.3289130212239363  0.1650570042905414  0.5260567879511094
  0.3267909515163283  0.1652014624186214  0.2634316488477886
  0.3351460411471758  0.6648538578088153  0.1347412379376692
  0.3350655051848855  0.6649343937711061  0.3971820851734210
  0.3332301570249870  0.6667697419310044  0.0008734229550381
  0.3334280576202827  0.6665718413357089  0.5253569027503735
  0.3344866200941399  0.6655132788618513  0.2642584001734762
  0.8381863019156348  0.1618136515226988  0.1351887764125914
  0.8390406075465211  0.1609593458918124  0.3988025232072405
  0.8340634677734334  0.1659364856649001  0.0017054787059785
  0.8327982664569555  0.1672016869813779  0.5285499841106879
  0.8368641420074674  0.1631358114308661  0.2645437395634130
  0.8345795542357343  0.6738753763057452  0.1363807698532742
  0.8343986419919509  0.6739230600511700  0.3998912101142865
  0.8346159274346340  0.6687559287215563  0.0019716403935550
  0.8349429171681181  0.6710868749862338  0.5260567879511094
  0.8347984590400380  0.6732089446938417  0.2634316488477886

  0.00000000E+00  0.00000000E+00  0.00000000E+00
  0.00000000E+00  0.00000000E+00  0.00000000E+00
  0.00000000E+00  0.00000000E+00  0.00000000E+00
  0.00000000E+00  0.00000000E+00  0.00000000E+00
  0.00000000E+00  0.00000000E+00  0.00000000E+00
  0.00000000E+00  0.00000000E+00  0.00000000E+00
  0.00000000E+00  0.00000000E+00  0.00000000E+00
  0.00000000E+00  0.00000000E+00  0.00000000E+00
  0.00000000E+00  0.00000000E+00  0.00000000E+00
  0.00000000E+00  0.00000000E+00  0.00000000E+00
  0.00000000E+00  0.00000000E+00  0.00000000E+00
  0.00000000E+00  0.00000000E+00  0.00000000E+00
  0.00000000E+00  0.00000000E+00  0.00000000E+00
  0.00000000E+00  0.00000000E+00  0.00000000E+00
  0.00000000E+00  0.00000000E+00  0.00000000E+00
  0.00000000E+00  0.00000000E+00  0.00000000E+00
  0.00000000E+00  0.00000000E+00  0.00000000E+00
  0.00000000E+00  0.00000000E+00  0.00000000E+00
  0.00000000E+00  0.00000000E+00  0.00000000E+00
  0.00000000E+00  0.00000000E+00  0.00000000E+00
  0.00000000E+00  0.00000000E+00  0.00000000E+00
  0.00000000E+00  0.00000000E+00  0.00000000E+00
  0.00000000E+00  0.00000000E+00  0.00000000E+00
  0.00000000E+00  0.00000000E+00  0.00000000E+00
  0.00000000E+00  0.00000000E+00  0.00000000E+00
  0.00000000E+00  0.00000000E+00  0.00000000E+00
  0.00000000E+00  0.00000000E+00  0.00000000E+00
  0.00000000E+00  0.00000000E+00  0.00000000E+00
  0.00000000E+00  0.00000000E+00  0.00000000E+00
  0.00000000E+00  0.00000000E+00  0.00000000E+00
  0.00000000E+00  0.00000000E+00  0.00000000E+00
  0.00000000E+00  0.00000000E+00  0.00000000E+00
  0.00000000E+00  0.00000000E+00  0.00000000E+00
  0.00000000E+00  0.00000000E+00  0.00000000E+00
  0.00000000E+00  0.00000000E+00  0.00000000E+00
  0.00000000E+00  0.00000000E+00  0.00000000E+00
  0.00000000E+00  0.00000000E+00  0.00000000E+00
  0.00000000E+00  0.00000000E+00  0.00000000E+00
  0.00000000E+00  0.00000000E+00  0.00000000E+00
  0.00000000E+00  0.00000000E+00  0.00000000E+00
  0.00000000E+00  0.00000000E+00  0.00000000E+00
  0.00000000E+00  0.00000000E+00  0.00000000E+00
  0.00000000E+00  0.00000000E+00  0.00000000E+00
  0.00000000E+00  0.00000000E+00  0.00000000E+00
  0.00000000E+00  0.00000000E+00  0.00000000E+00
  0.00000000E+00  0.00000000E+00  0.00000000E+00
  0.00000000E+00  0.00000000E+00  0.00000000E+00
  0.00000000E+00  0.00000000E+00  0.00000000E+00
  0.00000000E+00  0.00000000E+00  0.00000000E+00
  0.00000000E+00  0.00000000E+00  0.00000000E+00
  0.00000000E+00  0.00000000E+00  0.00000000E+00
  0.00000000E+00  0.00000000E+00  0.00000000E+00
  0.00000000E+00  0.00000000E+00  0.00000000E+00
  0.00000000E+00  0.00000000E+00  0.00000000E+00
