MoB2                                    
   1.0000000000000000     
     8.6453199387000002    0.0000000000000000    0.0000000000000000
    -2.1414606584000002    5.6957327634999997    0.0000000000000000
    -0.2384319305000000   -9.8409511943000005   23.9952660313000017
   Mo   V    B 
    12     4    32
Direct
  0.0061712615525535  0.5079151293176798  0.3370482533060776
  0.9971459062769666  0.4975658376002581  0.4995448020513905
  0.5061713592908615  0.0079151963415418  0.3370482533060776
  0.4971458883457600  0.9975659046241202  0.4995448020513905
  0.2507858126367873  0.0022824711776345  0.4172067072306967
  0.2451314181739049  0.9920541660586732  0.5796275523684407
  0.2502470310142905  0.4997667661587302  0.4170535025252340
  0.2456309242879115  0.4921310834116429  0.5795416991343227
  0.7502470130830837  0.9997668331825921  0.4170535025252340
  0.7456309063566976  0.9921311504355049  0.5795416991343227
  0.7507858376585426  0.5022824041537726  0.4172067072306967
  0.7451313275261313  0.4920540990348112  0.5796275523684407
  0.0048441976821785  0.0097817759636981  0.3378458363613944
  0.9989013208069126  0.9976385775267945  0.4985830142766108
  0.5048441070344120  0.5097817089398361  0.3378458363613944
  0.4989013458286609  0.4976385105029326  0.4985830142766108
  0.4558479213734441  0.3320474862227935  0.4011295271627324
  0.4606328599755002  0.3642099083895680  0.5892324177026359
  0.4550810927017216  0.8249903703208917  0.4002251207859160
  0.4610424516326735  0.8622407037730015  0.5878423161907073
  0.9550811904400298  0.3249904373447538  0.4002251207859160
  0.9610425493709887  0.3622407707968706  0.5878423161907073
  0.9558479463951923  0.8320474191989314  0.4011295271627324
  0.9606330006667703  0.8642098413657059  0.5892324177026359
  0.2088231444960502  0.3326283784369729  0.4869503323426619
  0.2096349344817023  0.3303297970193342  0.3176349054211436
  0.2047980012666079  0.8362124675331972  0.4874823459040664
  0.2078047260581303  0.8302799927235268  0.3168406560549828
  0.7047979398463986  0.3362123589870225  0.4874823459040664
  0.7078047803074358  0.3302798841773592  0.3168406560549828
  0.7088232130068011  0.8326284869831477  0.4869503323426619
  0.7096348873229312  0.8303299055655018  0.3176349054211436
  0.0400515912784896  0.1629686172631097  0.4297710375651355
  0.0424899287285280  0.1692952307082281  0.5988115917453469
  0.0403060296087318  0.6671143819244595  0.4299684953257660
  0.0432293557896041  0.6730029928850151  0.6008491503022200
  0.5403060116775250  0.1671144489483145  0.4299684953257660
  0.5432293378583902  0.1730030599088770  0.6008491503022200
  0.5400516163002450  0.6629685502392548  0.4297710375651355
  0.5424898380807613  0.6692951636843661  0.5988115917453469
  0.2899571376880171  0.1440851322120552  0.3318817528938359
  0.2942827574466807  0.1716427847071917  0.5152533014005120
  0.2910326423456978  0.6307322769445999  0.3243541722012868
  0.2961277055265009  0.6690833346495098  0.5153211619991117
  0.7910323930754541  0.1307323439684618  0.3243541722012868
  0.7961275719257722  0.1690834016733719  0.5153211619991117
  0.7899569313707284  0.6440850651881931  0.3318817528938359
  0.7942826667989140  0.6716427176833297  0.5152533014005120

  0.00000000E+00  0.00000000E+00  0.00000000E+00
  0.00000000E+00  0.00000000E+00  0.00000000E+00
  0.00000000E+00  0.00000000E+00  0.00000000E+00
  0.00000000E+00  0.00000000E+00  0.00000000E+00
  0.00000000E+00  0.00000000E+00  0.00000000E+00
  0.00000000E+00  0.00000000E+00  0.00000000E+00
  0.00000000E+00  0.00000000E+00  0.00000000E+00
  0.00000000E+00  0.00000000E+00  0.00000000E+00
  0.00000000E+00  0.00000000E+00  0.00000000E+00
  0.00000000E+00  0.00000000E+00  0.00000000E+00
  0.00000000E+00  0.00000000E+00  0.00000000E+00
  0.00000000E+00  0.00000000E+00  0.00000000E+00
  0.00000000E+00  0.00000000E+00  0.00000000E+00
  0.00000000E+00  0.00000000E+00  0.00000000E+00
  0.00000000E+00  0.00000000E+00  0.00000000E+00
  0.00000000E+00  0.00000000E+00  0.00000000E+00
  0.00000000E+00  0.00000000E+00  0.00000000E+00
  0.00000000E+00  0.00000000E+00  0.00000000E+00
  0.00000000E+00  0.00000000E+00  0.00000000E+00
  0.00000000E+00  0.00000000E+00  0.00000000E+00
  0.00000000E+00  0.00000000E+00  0.00000000E+00
  0.00000000E+00  0.00000000E+00  0.00000000E+00
  0.00000000E+00  0.00000000E+00  0.00000000E+00
  0.00000000E+00  0.00000000E+00  0.00000000E+00
  0.00000000E+00  0.00000000E+00  0.00000000E+00
  0.00000000E+00  0.00000000E+00  0.00000000E+00
  0.00000000E+00  0.00000000E+00  0.00000000E+00
  0.00000000E+00  0.00000000E+00  0.00000000E+00
  0.00000000E+00  0.00000000E+00  0.00000000E+00
  0.00000000E+00  0.00000000E+00  0.00000000E+00
  0.00000000E+00  0.00000000E+00  0.00000000E+00
  0.00000000E+00  0.00000000E+00  0.00000000E+00
  0.00000000E+00  0.00000000E+00  0.00000000E+00
  0.00000000E+00  0.00000000E+00  0.00000000E+00
  0.00000000E+00  0.00000000E+00  0.00000000E+00
  0.00000000E+00  0.00000000E+00  0.00000000E+00
  0.00000000E+00  0.00000000E+00  0.00000000E+00
  0.00000000E+00  0.00000000E+00  0.00000000E+00
  0.00000000E+00  0.00000000E+00  0.00000000E+00
  0.00000000E+00  0.00000000E+00  0.00000000E+00
  0.00000000E+00  0.00000000E+00  0.00000000E+00
  0.00000000E+00  0.00000000E+00  0.00000000E+00
  0.00000000E+00  0.00000000E+00  0.00000000E+00
  0.00000000E+00  0.00000000E+00  0.00000000E+00
  0.00000000E+00  0.00000000E+00  0.00000000E+00
  0.00000000E+00  0.00000000E+00  0.00000000E+00
  0.00000000E+00  0.00000000E+00  0.00000000E+00
  0.00000000E+00  0.00000000E+00  0.00000000E+00
