B2 Mo                                   
   1.0000000000000000     
     6.0425883636359368    0.0001369167973727    0.0000099477789383
    -3.0211766588293898    5.2330686889487383    0.0000057453986962
     0.0000119662602771    0.0000126167104066    6.1378570730644384
   Mo   V    B 
     3     4    16
Direct
  0.9996492083430439  0.9999748071954926  0.5112903396500030
  0.4996368061191134  0.4999798294320215  0.0109977489861564
  0.4996424485715636  0.4999696634385487  0.5111012994256257
  0.9996587244786781  0.4999810722455678  0.0111254432190577
  0.9996462922862506  0.4999848242833238  0.5110642564859802
  0.4996559611458196  0.9999875443417423  0.0111257581790838
  0.4996506858945793  0.9999715819279587  0.5110635841399471
  0.1603892144792098  0.3290341161184571  0.2520498137707605
  0.1603667569468499  0.3290292008791553  0.7703898401555307
  0.8388996779125577  0.6709190093351722  0.2520441896016976
  0.8389174029967350  0.6709263301050470  0.7703900336621459
  0.6705807982671104  0.8392313292067470  0.2520567346063771
  0.6705735472859899  0.8392457455852167  0.7703802341685417
  0.3287188225903606  0.1607261366722881  0.2520522368329097
  0.3287093921055799  0.1607120680007768  0.7703852758335543
  0.1660860335947660  0.8335471781424673  0.2522465301266905
  0.1661399281795397  0.8334786288227036  0.7700608265424833
  0.8332144276788043  0.1664126779284132  0.2522549944013903
  0.8331431620564373  0.1664783580344604  0.7700530890545849
  0.6687453729914168  0.3308883228882777  0.2614010589744851
  0.6687375055333789  0.3308955310856376  0.7605963582869819
  0.3305496738954048  0.6690688463551808  0.2614094869718073
  0.3305563914040235  0.6690604772319020  0.7605902664016355

  0.00000000E+00  0.00000000E+00  0.00000000E+00
  0.00000000E+00  0.00000000E+00  0.00000000E+00
  0.00000000E+00  0.00000000E+00  0.00000000E+00
  0.00000000E+00  0.00000000E+00  0.00000000E+00
  0.00000000E+00  0.00000000E+00  0.00000000E+00
  0.00000000E+00  0.00000000E+00  0.00000000E+00
  0.00000000E+00  0.00000000E+00  0.00000000E+00
  0.00000000E+00  0.00000000E+00  0.00000000E+00
  0.00000000E+00  0.00000000E+00  0.00000000E+00
  0.00000000E+00  0.00000000E+00  0.00000000E+00
  0.00000000E+00  0.00000000E+00  0.00000000E+00
  0.00000000E+00  0.00000000E+00  0.00000000E+00
  0.00000000E+00  0.00000000E+00  0.00000000E+00
  0.00000000E+00  0.00000000E+00  0.00000000E+00
  0.00000000E+00  0.00000000E+00  0.00000000E+00
  0.00000000E+00  0.00000000E+00  0.00000000E+00
  0.00000000E+00  0.00000000E+00  0.00000000E+00
  0.00000000E+00  0.00000000E+00  0.00000000E+00
  0.00000000E+00  0.00000000E+00  0.00000000E+00
  0.00000000E+00  0.00000000E+00  0.00000000E+00
  0.00000000E+00  0.00000000E+00  0.00000000E+00
  0.00000000E+00  0.00000000E+00  0.00000000E+00
  0.00000000E+00  0.00000000E+00  0.00000000E+00
