MoB2                                    
   1.0000000000000000     
     8.6453199387000002    0.0000000000000000    0.0000000000000000
    -2.1414606584000002    5.6957327634999997    0.0000000000000000
    -0.2384319305000000   -9.8409511943000005   23.9952660313000017
   Mo   V    B    H 
    12     4    32     4
Selective dynamics
Direct
  0.9938210064216619  0.4921686077176730  0.6629583389177469   F   F   F
  0.0028379041225790  0.5024267148331987  0.5004508972451447   F   F   F
  0.4938210303289381  0.9921685928381123  0.6629583389177469   F   F   F
  0.5028379836632695  0.0024268134596639  0.5004508972451447   F   F   F
  0.2543443130216900  0.0079389403953058  0.4204519626429573   F   F   F
  0.2497820023303348  0.0002273208551813  0.5829447386311060   F   F   F
  0.2548644056694513  0.5078283063323923  0.4203553045772779   F   F   F
  0.2492068738886246  0.4977023099065789  0.5827836948654337   F   F   F
  0.7548645437552963  0.0078283629976212  0.4203553045772779   F   F   F
  0.7492068220670660  0.9977022950270182  0.5827836948654337   F   F   F
  0.7543443231989926  0.5079389255157452  0.4204519626429573   F   F   F
  0.7497817987109485  0.5002272222287090  0.5829447386311060   F   F   F
  0.0010321790630456  0.0023097752496994  0.5014071444053130   F   F   F
  0.5010322486386798  0.5023097185844705  0.5014071444053130   F   F   F
  0.9951932211785817  0.9901637464600341  0.6621534379437435   F   F   F
  0.4951932558252565  0.4901637195539266  0.6621534379437435   F   F   F
  0.4575189288785424  0.3307094854155039  0.4011994013920273   F   F   F
  0.4599938285489102  0.3370334482358714  0.5702220813535490   F   F   F
  0.4567228639051280  0.8270034772346619  0.3991429533853363   F   F   F
  0.4597275559110088  0.8329391817539289  0.5700396949197284   F   F   F
  0.9567228709414906  0.3270034503285544  0.3991429533853363   F   F   F
  0.9597275009879240  0.3329392385947259  0.5700396949197284   F   F   F
  0.9575188736467695  0.8307094287502750  0.4011994013920273   F   F   F
  0.9599939558600283  0.8370333496094062  0.5702220813535490   F   F   F
  0.2056805377980311  0.3283489479825406  0.4847465851317239   F   F   F
  0.2100037394428895  0.3556671204757578  0.6680112663094135   F   F   F
  0.2038558538606239  0.8308839135030652  0.4846670171037033   F   F   F
  0.2090877442350703  0.8695888339166800  0.6758595672098622   F   F   F
  0.7038558333077702  0.3308839283826259  0.4846670171037033   F   F   F
  0.7090879082743839  0.3695888907574840  0.6758595672098622   F   F   F
  0.7056806996574849  0.8283490168498844  0.4847465851317239   F   F   F
  0.7100036220530939  0.8556670636349608  0.6680112663094135   F   F   F
  0.0393316181632528  0.1355709221932457  0.4106207009394112   F   F   F
  0.0441091131365425  0.1679314608829756  0.5988685583754503   F   F   F
  0.0390107645870970  0.6379928633129452  0.4122964385597996   F   F   F
  0.0449487771028814  0.6749997857953431  0.5997604595101151   F   F   F
  0.5390108509916942  0.1379930456863221  0.4122964385597996   F   F   F
  0.5449488082977894  0.1749998008504718  0.5997604595101151   F   F   F
  0.5393316472709415  0.6355708235667805  0.4106207009394112   F   F   F
  0.5441089972709179  0.6679312785096059  0.5988685583754503   F   F   F
  0.2903416073618601  0.1697430402628157  0.6823585501257696   F   F   F
  0.2911480061410643  0.1673530480226475  0.5130387022566012   F   F   F
  0.2922257940014106  0.6697173086696537  0.6831630536047015   F   F   F
  0.2952116524771355  0.6637526890138332  0.5124992135514859   F   F   F
  0.7922256080247578  0.1697173655104507  0.6831630536047015   F   F   F
  0.7952116044901416  0.1637528294259738  0.5124992135514859   F   F   F
  0.7903415312701654  0.6697428998506751  0.6823585501257696   F   F   F
  0.7911477817774255  0.6673528656492778  0.5130387022566012   F   F   F
  0.9272603578930112  0.8099159643449864  0.7178094897711863   T   T   T
  0.9242745304762453  0.2701474219596895  0.7199215212320832   T   T   T
  0.4266964731462531  0.3109096087876684  0.7179811022508471   T   T   T
  0.4254478141415495  0.7713997449596751  0.7195948560241285   T   T   T

  0.00000000E+00  0.00000000E+00  0.00000000E+00
  0.00000000E+00  0.00000000E+00  0.00000000E+00
  0.00000000E+00  0.00000000E+00  0.00000000E+00
  0.00000000E+00  0.00000000E+00  0.00000000E+00
  0.00000000E+00  0.00000000E+00  0.00000000E+00
  0.00000000E+00  0.00000000E+00  0.00000000E+00
  0.00000000E+00  0.00000000E+00  0.00000000E+00
  0.00000000E+00  0.00000000E+00  0.00000000E+00
  0.00000000E+00  0.00000000E+00  0.00000000E+00
  0.00000000E+00  0.00000000E+00  0.00000000E+00
  0.00000000E+00  0.00000000E+00  0.00000000E+00
  0.00000000E+00  0.00000000E+00  0.00000000E+00
  0.00000000E+00  0.00000000E+00  0.00000000E+00
  0.00000000E+00  0.00000000E+00  0.00000000E+00
  0.00000000E+00  0.00000000E+00  0.00000000E+00
  0.00000000E+00  0.00000000E+00  0.00000000E+00
  0.00000000E+00  0.00000000E+00  0.00000000E+00
  0.00000000E+00  0.00000000E+00  0.00000000E+00
  0.00000000E+00  0.00000000E+00  0.00000000E+00
  0.00000000E+00  0.00000000E+00  0.00000000E+00
  0.00000000E+00  0.00000000E+00  0.00000000E+00
  0.00000000E+00  0.00000000E+00  0.00000000E+00
  0.00000000E+00  0.00000000E+00  0.00000000E+00
  0.00000000E+00  0.00000000E+00  0.00000000E+00
  0.00000000E+00  0.00000000E+00  0.00000000E+00
  0.00000000E+00  0.00000000E+00  0.00000000E+00
  0.00000000E+00  0.00000000E+00  0.00000000E+00
  0.00000000E+00  0.00000000E+00  0.00000000E+00
  0.00000000E+00  0.00000000E+00  0.00000000E+00
  0.00000000E+00  0.00000000E+00  0.00000000E+00
  0.00000000E+00  0.00000000E+00  0.00000000E+00
  0.00000000E+00  0.00000000E+00  0.00000000E+00
  0.00000000E+00  0.00000000E+00  0.00000000E+00
  0.00000000E+00  0.00000000E+00  0.00000000E+00
  0.00000000E+00  0.00000000E+00  0.00000000E+00
  0.00000000E+00  0.00000000E+00  0.00000000E+00
  0.00000000E+00  0.00000000E+00  0.00000000E+00
  0.00000000E+00  0.00000000E+00  0.00000000E+00
  0.00000000E+00  0.00000000E+00  0.00000000E+00
  0.00000000E+00  0.00000000E+00  0.00000000E+00
  0.00000000E+00  0.00000000E+00  0.00000000E+00
  0.00000000E+00  0.00000000E+00  0.00000000E+00
  0.00000000E+00  0.00000000E+00  0.00000000E+00
  0.00000000E+00  0.00000000E+00  0.00000000E+00
  0.00000000E+00  0.00000000E+00  0.00000000E+00
  0.00000000E+00  0.00000000E+00  0.00000000E+00
  0.00000000E+00  0.00000000E+00  0.00000000E+00
  0.00000000E+00  0.00000000E+00  0.00000000E+00
  0.00000000E+00  0.00000000E+00  0.00000000E+00
  0.00000000E+00  0.00000000E+00  0.00000000E+00
  0.00000000E+00  0.00000000E+00  0.00000000E+00
  0.00000000E+00  0.00000000E+00  0.00000000E+00
