MoB2
1.0
       10.5395298004         0.0000000000         0.0000000000
        0.0000000000         6.1412000656         0.0000000000
        0.0000000000         0.0000000000         24.1274995804
   Mo    V    B
   15      6       48
Selective dynamics
Cartesian
    0.000000    0.000000    3.042500 F F F
    0.000000    3.070600    9.127500  T T T
    5.269765    0.000000    9.127500  T T T
    5.269765    0.000000    6.085000  T T T
    5.269765    3.070600    3.042500 F F F
    2.634882    0.000000    1.521250 F F F
    2.634882    0.000000    4.563750 F F F
    2.634882    0.000000    7.606249 T T T
    2.634882    3.070600    4.563750 F F F
    2.634882    3.070600    7.606249 T T T
    7.904647    0.000000    1.521250 F F F
    7.904647    0.000000    7.606249 T T T
    7.904647    3.070600    1.521250 F F F
    7.904647    3.070600    4.563750 F F F
    7.904647    3.070600    7.606249  T T T
  0.000000    0.000000    9.127500  T T T
  5.269765    3.070600    9.127500  T T T
  0.000000    3.070600    3.042500  F F F
  5.269765    0.000000    3.042500  F F F
  0.000000    0.000000    6.085000  T T T
  5.269765    3.070600    6.085000  T T T
  0.878294    1.535300    1.521250  F F F
  0.878294    1.535300    4.563750  F F F
  0.878294    1.535300    7.606249  T T T
  0.878294    4.605900    1.521250  F F F
  0.878294    4.605900    4.563750  F F F
  0.878294    4.605900    7.606249  T T T
  6.148059    1.535300    1.521250  F F F
  6.148059    1.535300    4.563750  F F F
  6.148059    1.535300    7.606249  T T T
  6.148059    4.605900    1.521250  F F F
  6.148059    4.605900    4.563750  F F F
  6.148059    4.605900    7.606249  T T T
  3.513177    1.535300    9.127500  T T T
  3.513177    1.535300    3.042500  F F F
  3.513177    1.535300    6.085000  T T T
  3.513177    4.605900    9.127500  T T T
  3.513177    4.605900    3.042500  F F F
  3.513177    4.605900    6.085000  T T T
  8.782942    1.535300    9.127500  T T T
  8.782942    1.535300    3.042500  F F F
  8.782942    1.535300    6.085000  T T T
  8.782942    4.605900    9.127500  T T T
  8.782942    4.605900    3.042500  F F F
  8.782942    4.605900    6.085000  T T T
  4.391471    1.535300    1.521250  F F F
  4.391471    1.535300    4.563750  F F F
  4.391471    1.535300    7.606249  T T T
  4.391471    4.605900    1.521250  F F F
  4.391471    4.605900    4.563750  F F F
  4.391471    4.605900    7.606249  T T T
  9.661236    1.535300    1.521250  F F F
  9.661236    1.535300    4.563750  F F F
  9.661236    1.535300    7.606249  T T T
  9.661236    4.605900    1.521250  F F F
  9.661236    4.605900    4.563750  F F F
  9.661236    4.605900    7.606249  T T T
  1.756588    1.535300    9.127500  T T T
  1.756588    1.535300    3.042500  F F F
  1.756588    1.535300    6.085000  T T T
  1.756588    4.605900    9.127500  T T T
  1.756588    4.605900    3.042500  F F F
  1.756588    4.605900    6.085000  T T T
  7.026353    1.535300    9.127500  T T T
  7.026353    1.535300    3.042500  F F F
  7.026353    1.535300    6.085000  T T T
  7.026353    4.605900    9.127500  T T T 
  7.026353    4.605900    3.042500  F F F
  7.026353    4.605900    6.085000 T T T
  