 2 Mo0.5b2
1.0
        6.0780000687         0.0000000000         0.0000000000
       -3.0390007352         5.2637020590         0.0000000000
        0.0000000000         0.0000000000         6.1100001335
   Mo   V    B
    4      3     16
Cartesian
    0.000000    0.000000    0.000000
    0.000000    0.000000    3.133244
    1.517104    2.631720    0.000000
    1.517104    2.631720    3.133244
  -1.524071    2.631720    3.133244
   3.041175    0.000000    0.000000
   3.041175    0.000000    3.133244
  -0.027903    1.769227    1.566627
  -0.027903    1.769227    4.699870
   3.062111    3.494214    1.566627
   3.062111    3.494214    4.699870
   1.489201    4.400947    1.566627
   1.489201    4.400947    4.699870
   1.545007    0.862494    1.566627
   1.545007    0.862494    4.699870
  -1.505792    4.374324    1.566627
  -1.505792    4.374324    4.699870
   4.539999    0.889116    1.566627
   4.539999    0.889116    4.699870
   3.059454    1.742604    1.566627
   3.059454    1.742604    4.699870
  -0.025246    3.520837    1.566627
  -0.025246    3.520837    4.699870

