 2 Mo0.5b2                              
1.0
        6.0780000687         0.0000000000         0.0000000000
       -3.0390007352         5.2637020590         0.0000000000
        0.0000000000         0.0000000000        18.3299999237
   Mo    V    B    H
    4    3   16       1
Cartesian
     3.037189007         5.263617992         4.742779732
     3.037161827         5.263557911         7.658133507
     1.517542720         2.631724119         4.742796421
     1.517648220         2.631737947         7.658124447
     4.556543827         2.631772280         7.592803001
    -0.001691103         5.263577461         4.782564640
    -0.001914501         5.263617992         7.679672241
    -0.053404629         1.784416556         6.029842377
    -0.005432367         1.756463170         9.233660698
     3.088893175         3.479152918         6.029560566
     3.040482998         3.507109404         9.233765602
     1.490736723         4.401852608         6.128123760
     1.509710312         4.390848637         9.235098839
     1.544626236         0.861615121         6.128076077
     1.525326967         0.872683227         9.235153198
    -1.502956271         4.352105141         6.054262638
    -1.512209892         4.381399155         9.208925247
     4.538163662         0.911367118         6.054425716
     4.547249794         0.882093966         9.208862305
     3.076084137         1.755532384         6.054294109
     3.045883417         1.748926401         9.208891869
    -0.040633678         3.507751226         6.054410458
    -0.010855913         3.514569998         9.208834648
	-1.012209892         4.081399155         10.208925247
