B2 Mo                                   
   1.0000000000000000     
     6.0780000686999998    0.0000000000000000    0.0000000000000000
    -3.0390007352000001    5.2637020589999999    0.0000000000000000
     0.0000000000000000    0.0000000000000000   22.3299999237000009
   Mo   V    B    H 
    12     2    40     1
Direct
  0.0002542394897330 -0.0001744910675898  0.0634385062408914
  0.0008390095826994 -0.0006012053522390  0.3446479740205244
  0.9999615797847368  0.5002249310056566  0.2031123793297193
  0.0001333972635111  0.4985982347682871  0.4848541691151981
  0.0000970415852374  0.4999535155337085  0.0637291895181275
  0.9984346322062044  0.5003296560741725  0.3447316397389320
  0.4998798097672618  0.0002753061003310  0.2028725755495685
  0.5032184372588615  0.0029257368435796  0.4832811743412407
  0.5000859872381008 -0.0000778714767301  0.0638154704400544
  0.4997801127987640  0.0012410618048966  0.3450018637339314
  0.5004358646185220  0.4994521233099735  0.2032498114715067
  0.5064611426212822  0.4960589381046354  0.4833237041752591
  0.5000404766626317  0.5000006439873579  0.0637850359542478
  0.5002134853624910  0.5000596331831486  0.3437910539105736
  0.1682979682318480  0.3340797877849595  0.9908040627579088
  0.1648168715030608  0.3279174043885394  0.5524164800253056
  0.1658039982681614  0.3293827765636775  0.2729571151635054
  0.1660112509451884  0.3292091077658004  0.1335246579913930
  0.1668972020636313  0.3300195748406450  0.4173223181233855
  0.1666750790024180  0.8333537770063834  0.9897016641508479
  0.1683578870573805  0.8383975382869238  0.5571955090444524
  0.1638143358442886  0.8366463634935419  0.2717067367045469
  0.1629582557861552  0.8368999348328291  0.1347690395717702
  0.1639007027462549  0.8364613949377645  0.4186886431113276
  0.6657297984642960  0.3342505980571228  0.9907038337581787
  0.6667124234467620  0.3332021475691056  0.5556702710147856
  0.6651663838310102  0.3345631414294964  0.2746346819661797
  0.6651507770873051  0.3349810983290308  0.1309702228801002
  0.6657890980806214  0.3355824501917647  0.4126918780365803
  0.6659035948014776  0.8317233122944446  0.9907820134307663
  0.6758206123689346  0.8361719701895877  0.5522261558831097
  0.6704191667736211  0.8343735693817104  0.2729716658323970
  0.6709086183154471  0.8339741387976525  0.1335063146422011
  0.6727068689395743  0.8347253580744258  0.4172978258797114
  0.3340350097513348  0.1683813890477579  0.9907557030550707
  0.3325068905850005  0.1674539647982879  0.5543983663333842
  0.3294568984873529  0.1659622070539362  0.2729225615131297
  0.3289377658224588  0.1660365510055298  0.1335254026476163
  0.3267594991071301  0.1646397734250382  0.4167444689700621
  0.3341514485793656  0.6658519955676616  0.9907210712390191
  0.3354918699655446  0.6700166368735241  0.5565577557280573
  0.3349683769822429  0.6654116660271776  0.2746403317582581
  0.3347482043335216  0.6650868628846609  0.1311494155331171
  0.3358347480893826  0.6651318388335499  0.4134937906597598
  0.8332632768142509  0.1667081927237144  0.9896984517810268
  0.8347116306359375  0.1641974060892901  0.5553194548791252
  0.8362901530648115  0.1635361189531616  0.2717921544747365
  0.8370149812467769  0.1630634661432218  0.1347127006860920
  0.8392394084636711  0.1629544178157581  0.4182745786917182
  0.8315931921880484  0.6659662270296789  0.9907750881480556
  0.8375606290685396  0.6702274829447501  0.5544902134451600
  0.8339570733059052  0.6708256095885176  0.2729041295020888
  0.8339727866036902  0.6709507595995771  0.1335567491617981
  0.8364313620270561  0.6728305331227179  0.4169157929631038
  0.2699521530297072  0.7670628413695041  0.6022726187686170

  0.00000000E+00  0.00000000E+00  0.00000000E+00
  0.00000000E+00  0.00000000E+00  0.00000000E+00
  0.00000000E+00  0.00000000E+00  0.00000000E+00
  0.00000000E+00  0.00000000E+00  0.00000000E+00
  0.00000000E+00  0.00000000E+00  0.00000000E+00
  0.00000000E+00  0.00000000E+00  0.00000000E+00
  0.00000000E+00  0.00000000E+00  0.00000000E+00
  0.00000000E+00  0.00000000E+00  0.00000000E+00
  0.00000000E+00  0.00000000E+00  0.00000000E+00
  0.00000000E+00  0.00000000E+00  0.00000000E+00
  0.00000000E+00  0.00000000E+00  0.00000000E+00
  0.00000000E+00  0.00000000E+00  0.00000000E+00
  0.00000000E+00  0.00000000E+00  0.00000000E+00
  0.00000000E+00  0.00000000E+00  0.00000000E+00
  0.00000000E+00  0.00000000E+00  0.00000000E+00
  0.00000000E+00  0.00000000E+00  0.00000000E+00
  0.00000000E+00  0.00000000E+00  0.00000000E+00
  0.00000000E+00  0.00000000E+00  0.00000000E+00
  0.00000000E+00  0.00000000E+00  0.00000000E+00
  0.00000000E+00  0.00000000E+00  0.00000000E+00
  0.00000000E+00  0.00000000E+00  0.00000000E+00
  0.00000000E+00  0.00000000E+00  0.00000000E+00
  0.00000000E+00  0.00000000E+00  0.00000000E+00
  0.00000000E+00  0.00000000E+00  0.00000000E+00
  0.00000000E+00  0.00000000E+00  0.00000000E+00
  0.00000000E+00  0.00000000E+00  0.00000000E+00
  0.00000000E+00  0.00000000E+00  0.00000000E+00
  0.00000000E+00  0.00000000E+00  0.00000000E+00
  0.00000000E+00  0.00000000E+00  0.00000000E+00
  0.00000000E+00  0.00000000E+00  0.00000000E+00
  0.00000000E+00  0.00000000E+00  0.00000000E+00
  0.00000000E+00  0.00000000E+00  0.00000000E+00
  0.00000000E+00  0.00000000E+00  0.00000000E+00
  0.00000000E+00  0.00000000E+00  0.00000000E+00
  0.00000000E+00  0.00000000E+00  0.00000000E+00
  0.00000000E+00  0.00000000E+00  0.00000000E+00
  0.00000000E+00  0.00000000E+00  0.00000000E+00
  0.00000000E+00  0.00000000E+00  0.00000000E+00
  0.00000000E+00  0.00000000E+00  0.00000000E+00
  0.00000000E+00  0.00000000E+00  0.00000000E+00
  0.00000000E+00  0.00000000E+00  0.00000000E+00
  0.00000000E+00  0.00000000E+00  0.00000000E+00
  0.00000000E+00  0.00000000E+00  0.00000000E+00
  0.00000000E+00  0.00000000E+00  0.00000000E+00
  0.00000000E+00  0.00000000E+00  0.00000000E+00
  0.00000000E+00  0.00000000E+00  0.00000000E+00
  0.00000000E+00  0.00000000E+00  0.00000000E+00
  0.00000000E+00  0.00000000E+00  0.00000000E+00
  0.00000000E+00  0.00000000E+00  0.00000000E+00
  0.00000000E+00  0.00000000E+00  0.00000000E+00
  0.00000000E+00  0.00000000E+00  0.00000000E+00
  0.00000000E+00  0.00000000E+00  0.00000000E+00
  0.00000000E+00  0.00000000E+00  0.00000000E+00
  0.00000000E+00  0.00000000E+00  0.00000000E+00
  0.00000000E+00  0.00000000E+00  0.00000000E+00
