B2 Mo                                   
   1.0000000000000000     
     6.0715007781999999    0.0000000000000000    0.0000000000000000
    -3.0336328745999999    5.2592958921999999    0.0000000000000000
     0.0000000000000000    0.0000000000000000   25.8633270264000004
   Mo   V    B    H 
    12     4    34     2
Direct
  0.0000849562900224  0.0000333316523580  0.0692835031862286
  0.0005675141988508  0.0002475786275849  0.3101817067538003
  0.0002497188801775  0.5001364497252647  0.1880407626604136
  0.0016503416047983  0.5007832131439715  0.4359186623216738
  0.9999870632941273  0.4999697792882973  0.0660118328785882
  0.0000158854594177  0.4998499080653853  0.3081541061232146
  0.5002430864663273  0.0001671675188846  0.1880439470772522
  0.5016220266476036  0.0007207517487032  0.4359740587280649
  0.4999979265612208 -0.0000467432510528  0.0660100960723286
  0.5000126417788735 -0.0001509606702107  0.3081397597740740
  0.5000982263739263  0.4999809616186024  0.1873921197358780
  0.5013339378828632  0.5006541328524109  0.4309867140154029
  0.0000354911277034 -0.0000589587065301  0.1870499106429968
  0.0012199461542571  0.0005331656934741  0.4302242378941645
  0.5000244915307709  0.4999816659089236  0.0698366218689954
  0.5003932561888552  0.5001889669465888  0.3098559151197991
  0.1682006069063648  0.3314291932830514  0.2480419137419167
  0.1691424522046117  0.3316309956290582  0.4946024174900672
  0.1662260730483901  0.3311854304005595  0.1236710956852748
  0.1672301814083979  0.3334679504903378  0.3722861744476363
  0.1648797586767396  0.8353984240334211  0.2469066982165087
  0.1667241096476200  0.8356097389400247  0.4989922461864439
  0.1658615244816816  0.8342153769662679  0.1240975819320240
  0.1670749792472015  0.8346060045857607  0.3740129682221552
  0.6615610534421437  0.3385091238797879  0.0175848237449554
  0.6682079090506127  0.3343907072158520  0.4998654080798804
  0.6648732489606094  0.3354114253578825  0.2495667332550644
  0.6655454961081194  0.3345288382256102  0.1254488048484747
  0.6666067389832280  0.3348761646033435  0.3723578558988614
  0.6688979362112409  0.8321101409774645  0.2480574826411753
  0.6707988248809968  0.8333672125410907  0.4945981916894829
  0.6688836241079185  0.8338474833579805  0.1236616962271918
  0.6680270346258689  0.8343389956605965  0.3722895874892290
  0.3315868257333320  0.1680570304366895  0.2480350350344955
  0.3325054189781050  0.1682495104941488  0.4946116597669419
  0.3312319639272042  0.1661710136867856  0.1236730521713925
  0.3340572213166150  0.1666540478573579  0.3723200926740402
  0.3385604925199155  0.6615004366214358  0.0175871035590905
  0.3350806244528540  0.6672250061652247  0.4998953908293808
  0.3355611572682861  0.6646961337510973  0.2495596521901780
  0.3345875870012148  0.6654954296410620  0.1254489609671288
  0.3354684233800719  0.6660687569889278  0.3723369196952135
  0.8355904652184578  0.1647191055023023  0.2469182952373947
  0.8365924627672432  0.1660681543484157  0.4990121515194610
  0.8342645376960858  0.1658058153460126  0.1240911910968367
  0.8351129341619257  0.1664531591348652  0.3740043166293251
  0.8322467536254928  0.6687312178429360  0.2480528187097417
  0.8341911735867261  0.6699921949175024  0.4945778875013465
  0.8338994725588718  0.6688426206242148  0.1236663209477434
  0.8349228437196474  0.6674951796168076  0.3722968821348323
  0.2495171830160735  0.7508433300731935  0.5388959160330399
  0.7526082854696181  0.2499066036844758  0.5388916250863680

  0.00000000E+00  0.00000000E+00  0.00000000E+00
  0.00000000E+00  0.00000000E+00  0.00000000E+00
  0.00000000E+00  0.00000000E+00  0.00000000E+00
  0.00000000E+00  0.00000000E+00  0.00000000E+00
  0.00000000E+00  0.00000000E+00  0.00000000E+00
  0.00000000E+00  0.00000000E+00  0.00000000E+00
  0.00000000E+00  0.00000000E+00  0.00000000E+00
  0.00000000E+00  0.00000000E+00  0.00000000E+00
  0.00000000E+00  0.00000000E+00  0.00000000E+00
  0.00000000E+00  0.00000000E+00  0.00000000E+00
  0.00000000E+00  0.00000000E+00  0.00000000E+00
  0.00000000E+00  0.00000000E+00  0.00000000E+00
  0.00000000E+00  0.00000000E+00  0.00000000E+00
  0.00000000E+00  0.00000000E+00  0.00000000E+00
  0.00000000E+00  0.00000000E+00  0.00000000E+00
  0.00000000E+00  0.00000000E+00  0.00000000E+00
  0.00000000E+00  0.00000000E+00  0.00000000E+00
  0.00000000E+00  0.00000000E+00  0.00000000E+00
  0.00000000E+00  0.00000000E+00  0.00000000E+00
  0.00000000E+00  0.00000000E+00  0.00000000E+00
  0.00000000E+00  0.00000000E+00  0.00000000E+00
  0.00000000E+00  0.00000000E+00  0.00000000E+00
  0.00000000E+00  0.00000000E+00  0.00000000E+00
  0.00000000E+00  0.00000000E+00  0.00000000E+00
  0.00000000E+00  0.00000000E+00  0.00000000E+00
  0.00000000E+00  0.00000000E+00  0.00000000E+00
  0.00000000E+00  0.00000000E+00  0.00000000E+00
  0.00000000E+00  0.00000000E+00  0.00000000E+00
  0.00000000E+00  0.00000000E+00  0.00000000E+00
  0.00000000E+00  0.00000000E+00  0.00000000E+00
  0.00000000E+00  0.00000000E+00  0.00000000E+00
  0.00000000E+00  0.00000000E+00  0.00000000E+00
  0.00000000E+00  0.00000000E+00  0.00000000E+00
  0.00000000E+00  0.00000000E+00  0.00000000E+00
  0.00000000E+00  0.00000000E+00  0.00000000E+00
  0.00000000E+00  0.00000000E+00  0.00000000E+00
  0.00000000E+00  0.00000000E+00  0.00000000E+00
  0.00000000E+00  0.00000000E+00  0.00000000E+00
  0.00000000E+00  0.00000000E+00  0.00000000E+00
  0.00000000E+00  0.00000000E+00  0.00000000E+00
  0.00000000E+00  0.00000000E+00  0.00000000E+00
  0.00000000E+00  0.00000000E+00  0.00000000E+00
  0.00000000E+00  0.00000000E+00  0.00000000E+00
  0.00000000E+00  0.00000000E+00  0.00000000E+00
  0.00000000E+00  0.00000000E+00  0.00000000E+00
  0.00000000E+00  0.00000000E+00  0.00000000E+00
  0.00000000E+00  0.00000000E+00  0.00000000E+00
  0.00000000E+00  0.00000000E+00  0.00000000E+00
  0.00000000E+00  0.00000000E+00  0.00000000E+00
  0.00000000E+00  0.00000000E+00  0.00000000E+00
  0.00000000E+00  0.00000000E+00  0.00000000E+00
  0.00000000E+00  0.00000000E+00  0.00000000E+00
