B2 Mo                                   
   1.0000000000000000     
     6.0425882339000001    0.0000000000000000    0.0000000000000000
    -3.0210584412000001    5.2331368390000002    0.0000000000000000
     0.0000654718000000    0.0000737958000000   23.4135704038000014
   Mo   V    B    H 
     6     8    40     2
Direct
  0.9996196233643559  0.0000117800322306  0.0696744194705690
 -0.0000821034971661 -0.0004770578237886  0.3299199226415373
  0.4992284310205301  0.5000112463717464  0.1984719109793937
  0.5032212333312174  0.4955628716061550  0.4583218799966742
  0.4997759867217385  0.4999152826873435  0.0693374744873136
  0.4968908542655244  0.4981936091070340  0.3310349392729093
  0.9995967636450767  0.5000191016883462  0.1993918039004471
  0.9959968009223096  0.4984725337117688  0.4630547255859663
  0.9995270429482322  0.5000245820706740  0.0690395773277244
  0.0003331087900045  0.5012677167306360  0.3304464406670586
  0.4995099780606537  0.9992593599162409  0.1993452960669048
  0.5057239117104264  0.0046840163669371  0.4610600272153576
  0.4995743622201769  0.0001659373397141  0.0690636244218926
  0.4964449009699927 -0.0008811402384191  0.3305553876832341
  0.1655070219297176  0.3340657818125517  0.0003561439394333
  0.1708765878059627  0.3377268953545295  0.5269547706439162
  0.1600535514593340  0.3290457188353034  0.2621948625080037
  0.1603758252016765  0.3295794441120742  0.1357072246895260
  0.1596211848005226  0.3285133799286571  0.3985019101539760
  0.8338956844141177  0.6660438764505409  0.0003357011450319
  0.8354991178414419  0.6703605667991659  0.5242201044689040
  0.8377655495520171  0.6694970572036493  0.2621997402029582
  0.8387128160097327  0.6702690353770285  0.1357790069731592
  0.8409320983975329  0.6728660480830306  0.3986574857915539
  0.6656880374289079  0.8342866690908081  0.0003445860070793
  0.6677522519653964  0.8350668501552092  0.5236358816274211
  0.6692833891617023  0.8384057407380199  0.2623281503407930
  0.6699751955747347  0.8391932332355528  0.1357455423632859
  0.6728614523964122  0.8401060695348996  0.3990134532223242
  0.3337610430571515  0.1658903483865127  0.0003575171562037
  0.3387926893030996  0.1711011274208225  0.5283269443429297
  0.3293348565294885  0.1611921437034336  0.2620830298122269
  0.3291385319824053  0.1607669732883307  0.1357418992606919
  0.3253655756833841  0.1582385694065069  0.3987197285828495
  0.1671236534233101  0.8326565910253121  0.0014637978398963
  0.1656975211375369  0.8394108675835312  0.5259249965839288
  0.1649469523910402  0.8333323183813210  0.2622216368632096
  0.1661301512197857  0.8332747437501120  0.1356269539095757
  0.1672043310652163  0.8313649914672603  0.3984785382020034
  0.8323015709174799  0.1673971256256869  0.0015041701752969
  0.8394271699843319  0.1598801011230886  0.5196576308062882
  0.8328901417666575  0.1658771818078923  0.2621730509334040
  0.8329142835490269  0.1665935328563799  0.1356604972984115
  0.8321544506254981  0.1662842992420430  0.3985022592948543
  0.6674265237243830  0.3325515520072609  0.0016277941290391
  0.6679972268337980  0.3351838775036156  0.5237619752088940
  0.6682763514529690  0.3306762064975302  0.2643490123310501
  0.6688470682555097  0.3305707904806372  0.1329066041389573
  0.6685592870721394  0.3310493095157674  0.3949498443873834
  0.3321683673917792  0.6676465685118376  0.0016200133532421
  0.3302361140572080  0.6721243810615987  0.5284353171220986
  0.3303829944605713  0.6685721898401801  0.2641788496285499
  0.3301549833144500  0.6692007629650228  0.1328596185747728
  0.3312119790838582  0.6682667180903069  0.3957986264967860
  0.2478401498031158  0.7610977470889659  0.5711156094623441
  0.2539560400912041  0.2651380428150650  0.5718769911581977

  0.00000000E+00  0.00000000E+00  0.00000000E+00
  0.00000000E+00  0.00000000E+00  0.00000000E+00
  0.00000000E+00  0.00000000E+00  0.00000000E+00
  0.00000000E+00  0.00000000E+00  0.00000000E+00
  0.00000000E+00  0.00000000E+00  0.00000000E+00
  0.00000000E+00  0.00000000E+00  0.00000000E+00
  0.00000000E+00  0.00000000E+00  0.00000000E+00
  0.00000000E+00  0.00000000E+00  0.00000000E+00
  0.00000000E+00  0.00000000E+00  0.00000000E+00
  0.00000000E+00  0.00000000E+00  0.00000000E+00
  0.00000000E+00  0.00000000E+00  0.00000000E+00
  0.00000000E+00  0.00000000E+00  0.00000000E+00
  0.00000000E+00  0.00000000E+00  0.00000000E+00
  0.00000000E+00  0.00000000E+00  0.00000000E+00
  0.00000000E+00  0.00000000E+00  0.00000000E+00
  0.00000000E+00  0.00000000E+00  0.00000000E+00
  0.00000000E+00  0.00000000E+00  0.00000000E+00
  0.00000000E+00  0.00000000E+00  0.00000000E+00
  0.00000000E+00  0.00000000E+00  0.00000000E+00
  0.00000000E+00  0.00000000E+00  0.00000000E+00
  0.00000000E+00  0.00000000E+00  0.00000000E+00
  0.00000000E+00  0.00000000E+00  0.00000000E+00
  0.00000000E+00  0.00000000E+00  0.00000000E+00
  0.00000000E+00  0.00000000E+00  0.00000000E+00
  0.00000000E+00  0.00000000E+00  0.00000000E+00
  0.00000000E+00  0.00000000E+00  0.00000000E+00
  0.00000000E+00  0.00000000E+00  0.00000000E+00
  0.00000000E+00  0.00000000E+00  0.00000000E+00
  0.00000000E+00  0.00000000E+00  0.00000000E+00
  0.00000000E+00  0.00000000E+00  0.00000000E+00
  0.00000000E+00  0.00000000E+00  0.00000000E+00
  0.00000000E+00  0.00000000E+00  0.00000000E+00
  0.00000000E+00  0.00000000E+00  0.00000000E+00
  0.00000000E+00  0.00000000E+00  0.00000000E+00
  0.00000000E+00  0.00000000E+00  0.00000000E+00
  0.00000000E+00  0.00000000E+00  0.00000000E+00
  0.00000000E+00  0.00000000E+00  0.00000000E+00
  0.00000000E+00  0.00000000E+00  0.00000000E+00
  0.00000000E+00  0.00000000E+00  0.00000000E+00
  0.00000000E+00  0.00000000E+00  0.00000000E+00
  0.00000000E+00  0.00000000E+00  0.00000000E+00
  0.00000000E+00  0.00000000E+00  0.00000000E+00
  0.00000000E+00  0.00000000E+00  0.00000000E+00
  0.00000000E+00  0.00000000E+00  0.00000000E+00
  0.00000000E+00  0.00000000E+00  0.00000000E+00
  0.00000000E+00  0.00000000E+00  0.00000000E+00
  0.00000000E+00  0.00000000E+00  0.00000000E+00
  0.00000000E+00  0.00000000E+00  0.00000000E+00
  0.00000000E+00  0.00000000E+00  0.00000000E+00
  0.00000000E+00  0.00000000E+00  0.00000000E+00
  0.00000000E+00  0.00000000E+00  0.00000000E+00
  0.00000000E+00  0.00000000E+00  0.00000000E+00
  0.00000000E+00  0.00000000E+00  0.00000000E+00
  0.00000000E+00  0.00000000E+00  0.00000000E+00
  0.00000000E+00  0.00000000E+00  0.00000000E+00
  0.00000000E+00  0.00000000E+00  0.00000000E+00
