VB2                                     
   1.0000000000000000     
     5.9959998131000001    0.0000000000000000    0.0000000000000000
    -2.9979999065000000    5.1926881592000003    0.0000000000000000
     0.0000000000000000    0.0000000000000000   24.4559993744000010
   V    B    H 
    12    32     5
Selective dynamics
Direct
  0.0000000000000000  0.0000000000000000  0.1272560368257842   F   F   F
  0.9999999917993350  0.4999999835152806  0.1272560368257842   F   F   F
  0.4999999917076110  0.4999999835152806  0.1272560368257842   F   F   F
  0.5000000000750475  0.0000000000000000  0.1272560368257842   F   F   F
  0.0000000000000000  0.0000000000000000  0.2500000000163567   F   F   F
  0.9999999917993350  0.4999999835152806  0.2500000000163567   F   F   F
  0.4999999917076110  0.4999999835152806  0.2500000000163567   F   F   F
  0.5000000000750475  0.0000000000000000  0.2500000000163567   F   F   F
  0.0000000000000000  0.0000000000000000  0.3727439826704568   F   F   F
  0.9999999917993350  0.4999999835152806  0.3727439826704568   F   F   F
  0.4999999917076110  0.4999999835152806  0.3727439826704568   F   F   F
  0.5000000000750475  0.0000000000000000  0.3727439826704568   F   F   F
  0.6666666612440295  0.3333333223435204  0.0643546413665490   F   F   F
  0.3333332994211204  0.6666665988533609  0.0643546413665490   F   F   F
  0.1666666611689820  0.3333333223435204  0.0643546413665490   F   F   F
  0.6666666330300259  0.8333333058588011  0.0643546413665490   F   F   F
  0.1666666728148840  0.8333333058588011  0.0643546413665490   F   F   F
  0.8333332994961751  0.6666665988533609  0.0643546413665490   F   F   F
  0.3333333305386290  0.1666666611717602  0.0643546413665490   F   F   F
  0.8333333107671095  0.1666666611717602  0.0643546413665490   F   F   F
  0.6666666612440295  0.3333333223435204  0.1878362924644392   F   F   F
  0.3333332994211204  0.6666665988533609  0.1878362924644392   F   F   F
  0.1666666611689820  0.3333333223435204  0.1878362924644392   F   F   F
  0.6666666330300259  0.8333333058588011  0.1878362924644392   F   F   F
  0.1666666728148840  0.8333333058588011  0.1878362924644392   F   F   F
  0.8333332994961751  0.6666665988533609  0.1878362924644392   F   F   F
  0.3333333305386290  0.1666666611717602  0.1878362924644392   F   F   F
  0.8333333107671095  0.1666666611717602  0.1878362924644392   F   F   F
  0.6666666612440295  0.3333333223435204  0.3121637075273824   F   F   F
  0.3333332994211204  0.6666665988533609  0.3121637075273824   F   F   F
  0.1666666611689820  0.3333333223435204  0.3121637075273824   F   F   F
  0.6666666330300259  0.8333333058588011  0.3121637075273824   F   F   F
  0.1666666728148840  0.8333333058588011  0.3121637075273824   F   F   F
  0.8333332994961751  0.6666665988533609  0.3121637075273824   F   F   F
  0.3333333305386290  0.1666666611717602  0.3121637075273824   F   F   F
  0.8333333107671095  0.1666666611717602  0.3121637075273824   F   F   F
  0.1666666611689820  0.3333333223435204  0.4356453878614559   F   F   F
  0.6666666330300259  0.8333333058588011  0.4356453878614559   F   F   F
  0.1666666728148840  0.8333333058588011  0.4356453877387878   F   F   F
  0.8333332994961751  0.6666665988533609  0.4356453878614559   F   F   F
  0.3333333305386290  0.1666666611717602  0.4356453878614559   F   F   F
  0.8333333107671095  0.1666666611717602  0.4356453878614559   F   F   F
  0.6666666612440295  0.3333333223435204  0.4356453878614559   F   F   F
  0.3333332994211204  0.6666665988533609  0.4356453878614559   F   F   F
  0.2499999959371948  0.2499999917576403  0.4786007946254255   F   F   T
  0.7499999776381259  0.7499999752729209  0.4780005003606540   F   F   T
  0.2499999975764240  0.7499999752729209  0.4780005001562024   F   F   T
  0.7499999659922310  0.2499999917576403  0.4786007946254255   F   F   T
  0.4999999776839914  0.7499999752729209  0.4774226078814508   T   T   T

  0.00000000E+00  0.00000000E+00  0.00000000E+00
  0.00000000E+00  0.00000000E+00  0.00000000E+00
  0.00000000E+00  0.00000000E+00  0.00000000E+00
  0.00000000E+00  0.00000000E+00  0.00000000E+00
  0.00000000E+00  0.00000000E+00  0.00000000E+00
  0.00000000E+00  0.00000000E+00  0.00000000E+00
  0.00000000E+00  0.00000000E+00  0.00000000E+00
  0.00000000E+00  0.00000000E+00  0.00000000E+00
  0.00000000E+00  0.00000000E+00  0.00000000E+00
  0.00000000E+00  0.00000000E+00  0.00000000E+00
  0.00000000E+00  0.00000000E+00  0.00000000E+00
  0.00000000E+00  0.00000000E+00  0.00000000E+00
  0.00000000E+00  0.00000000E+00  0.00000000E+00
  0.00000000E+00  0.00000000E+00  0.00000000E+00
  0.00000000E+00  0.00000000E+00  0.00000000E+00
  0.00000000E+00  0.00000000E+00  0.00000000E+00
  0.00000000E+00  0.00000000E+00  0.00000000E+00
  0.00000000E+00  0.00000000E+00  0.00000000E+00
  0.00000000E+00  0.00000000E+00  0.00000000E+00
  0.00000000E+00  0.00000000E+00  0.00000000E+00
  0.00000000E+00  0.00000000E+00  0.00000000E+00
  0.00000000E+00  0.00000000E+00  0.00000000E+00
  0.00000000E+00  0.00000000E+00  0.00000000E+00
  0.00000000E+00  0.00000000E+00  0.00000000E+00
  0.00000000E+00  0.00000000E+00  0.00000000E+00
  0.00000000E+00  0.00000000E+00  0.00000000E+00
  0.00000000E+00  0.00000000E+00  0.00000000E+00
  0.00000000E+00  0.00000000E+00  0.00000000E+00
  0.00000000E+00  0.00000000E+00  0.00000000E+00
  0.00000000E+00  0.00000000E+00  0.00000000E+00
  0.00000000E+00  0.00000000E+00  0.00000000E+00
  0.00000000E+00  0.00000000E+00  0.00000000E+00
  0.00000000E+00  0.00000000E+00  0.00000000E+00
  0.00000000E+00  0.00000000E+00  0.00000000E+00
  0.00000000E+00  0.00000000E+00  0.00000000E+00
  0.00000000E+00  0.00000000E+00  0.00000000E+00
  0.00000000E+00  0.00000000E+00  0.00000000E+00
  0.00000000E+00  0.00000000E+00  0.00000000E+00
  0.00000000E+00  0.00000000E+00  0.00000000E+00
  0.00000000E+00  0.00000000E+00  0.00000000E+00
  0.00000000E+00  0.00000000E+00  0.00000000E+00
  0.00000000E+00  0.00000000E+00  0.00000000E+00
  0.00000000E+00  0.00000000E+00  0.00000000E+00
  0.00000000E+00  0.00000000E+00  0.00000000E+00
  0.00000000E+00  0.00000000E+00  0.00000000E+00
  0.00000000E+00  0.00000000E+00  0.00000000E+00
  0.00000000E+00  0.00000000E+00  0.00000000E+00
  0.00000000E+00  0.00000000E+00  0.00000000E+00
  0.00000000E+00  0.00000000E+00  0.00000000E+00
