B2 Mo                                   
   1.0000000000000000     
     6.0715007781999999    0.0000000000000000    0.0000000000000000
    -3.0336328745999999    5.2592958921999999    0.0000000000000000
     0.0000000000000000    0.0000000000000000   25.8633270264000004
   Mo   V    B 
    12     4    34
Direct
 -0.0000000000000000  0.0000000000000000  0.0694071968832022
 -0.0000000000000000  0.0000000000000000  0.3103968508997798
  0.0000000771457138  0.5000000102485203  0.1881949498446047
  0.0000000771457138  0.5000000102485203  0.4339468067810963
  0.0000000771457138  0.5000000102485203  0.0663400721537515
  0.0000000771457138  0.5000000102485203  0.3090585195175012
  0.4999999359137064  0.0000000000000000  0.1881949498446047
  0.4999999359137064  0.0000000000000000  0.4339468067810963
  0.4999999359137064  0.0000000000000000  0.0663400721537515
  0.4999999359137064  0.0000000000000000  0.3090585195175012
  0.5000000130594131  0.5000000102485203  0.1876432528627053
  0.5000000130594131  0.5000000102485203  0.4337133648760548
 -0.0000000000000000  0.0000000000000000  0.1872177402381527
 -0.0000000000000000  0.0000000000000000  0.4331772276481398
  0.5000000130594131  0.5000000102485203  0.0698101399617675
  0.5000000130594131  0.5000000102485203  0.3093402550661890
  0.1677456677421761  0.3314976800483433  0.2483819293744659
  0.1658572239548742  0.3316752574226249  0.4967311086773744
  0.1662884723931327  0.3311445247313873  0.1239010876745948
  0.1676306879186585  0.3327326240058213  0.3733182622167778
  0.1648688274651025  0.8351308309899931  0.2472737113119306
  0.1657786165586248  0.8342210418964708  0.4967661871811263
  0.1656674681456566  0.8343321903094394  0.1242987702872945
  0.1656900851511324  0.8343095733039635  0.3741561740570847
  0.6614340750436135  0.3385660464817609  0.0176981694618642
  0.6667120296915149  0.3332880918338598  0.4978144453392291
  0.6649708527398768  0.3350292687854977  0.2498487962376310
  0.6652721797395869  0.3347279417857878  0.1255792432819676
  0.6657386070104252  0.3342615145149491  0.3724796113473612
  0.6685021781322653  0.8322541876275393  0.2483819293744659
  0.6683246007579835  0.8341426314148416  0.4967311086773744
  0.6688553334492208  0.8337113829765825  0.1239010876745948
  0.6672672341747867  0.8323691674510572  0.3733182622167778
  0.3314977529831180  0.1677456427299776  0.2483819293744659
  0.3316753303573996  0.1658571989426757  0.4967311086773744
  0.3311445976661619  0.1662884473809342  0.1239010876745948
  0.3327326969405960  0.1676306629064600  0.3733182622167778
  0.3385659510752125  0.6614339740152794  0.0176981694618642
  0.3332879964273113  0.6667119286631807  0.4978144453392291
  0.3350291733789493  0.6649707517115426  0.2498487962376310
  0.3347278463792394  0.6652720787112527  0.1255792432819676
  0.3342614191084007  0.6657385059820911  0.3724796113473612
  0.8351307742424335  0.1648689993675308  0.2472737113119306
  0.8342209851489113  0.1657787884610531  0.4967661871811263
  0.8343321335618799  0.1656676400480849  0.1242987702872945
  0.8343095165564040  0.1656902570535607  0.3741561740570847
  0.8322540986692799  0.6685021503091739  0.2483819293744659
  0.8341425424565821  0.6683245729348921  0.4967311086773744
  0.8337112940183231  0.6688553056261293  0.1239010876745948
  0.8323690784927977  0.6672672063516953  0.3733182622167778

  0.00000000E+00  0.00000000E+00  0.00000000E+00
  0.00000000E+00  0.00000000E+00  0.00000000E+00
  0.00000000E+00  0.00000000E+00  0.00000000E+00
  0.00000000E+00  0.00000000E+00  0.00000000E+00
  0.00000000E+00  0.00000000E+00  0.00000000E+00
  0.00000000E+00  0.00000000E+00  0.00000000E+00
  0.00000000E+00  0.00000000E+00  0.00000000E+00
  0.00000000E+00  0.00000000E+00  0.00000000E+00
  0.00000000E+00  0.00000000E+00  0.00000000E+00
  0.00000000E+00  0.00000000E+00  0.00000000E+00
  0.00000000E+00  0.00000000E+00  0.00000000E+00
  0.00000000E+00  0.00000000E+00  0.00000000E+00
  0.00000000E+00  0.00000000E+00  0.00000000E+00
  0.00000000E+00  0.00000000E+00  0.00000000E+00
  0.00000000E+00  0.00000000E+00  0.00000000E+00
  0.00000000E+00  0.00000000E+00  0.00000000E+00
  0.00000000E+00  0.00000000E+00  0.00000000E+00
  0.00000000E+00  0.00000000E+00  0.00000000E+00
  0.00000000E+00  0.00000000E+00  0.00000000E+00
  0.00000000E+00  0.00000000E+00  0.00000000E+00
  0.00000000E+00  0.00000000E+00  0.00000000E+00
  0.00000000E+00  0.00000000E+00  0.00000000E+00
  0.00000000E+00  0.00000000E+00  0.00000000E+00
  0.00000000E+00  0.00000000E+00  0.00000000E+00
  0.00000000E+00  0.00000000E+00  0.00000000E+00
  0.00000000E+00  0.00000000E+00  0.00000000E+00
  0.00000000E+00  0.00000000E+00  0.00000000E+00
  0.00000000E+00  0.00000000E+00  0.00000000E+00
  0.00000000E+00  0.00000000E+00  0.00000000E+00
  0.00000000E+00  0.00000000E+00  0.00000000E+00
  0.00000000E+00  0.00000000E+00  0.00000000E+00
  0.00000000E+00  0.00000000E+00  0.00000000E+00
  0.00000000E+00  0.00000000E+00  0.00000000E+00
  0.00000000E+00  0.00000000E+00  0.00000000E+00
  0.00000000E+00  0.00000000E+00  0.00000000E+00
  0.00000000E+00  0.00000000E+00  0.00000000E+00
  0.00000000E+00  0.00000000E+00  0.00000000E+00
  0.00000000E+00  0.00000000E+00  0.00000000E+00
  0.00000000E+00  0.00000000E+00  0.00000000E+00
  0.00000000E+00  0.00000000E+00  0.00000000E+00
  0.00000000E+00  0.00000000E+00  0.00000000E+00
  0.00000000E+00  0.00000000E+00  0.00000000E+00
  0.00000000E+00  0.00000000E+00  0.00000000E+00
  0.00000000E+00  0.00000000E+00  0.00000000E+00
  0.00000000E+00  0.00000000E+00  0.00000000E+00
  0.00000000E+00  0.00000000E+00  0.00000000E+00
  0.00000000E+00  0.00000000E+00  0.00000000E+00
  0.00000000E+00  0.00000000E+00  0.00000000E+00
  0.00000000E+00  0.00000000E+00  0.00000000E+00
  0.00000000E+00  0.00000000E+00  0.00000000E+00
