MoVB2                                   
   1.00000000000000     
    10.3640060058851979   -0.0098268352908520    0.0016122822042832
    -0.0230178919751061   24.2500274545835381   -0.0001266901541117
     0.0009537468614941   -0.0000308373651381    6.1461397144132297
   Mo   V    B    H 
    12    12    48     1
Selective dynamics
Direct
  0.0000000000000000  0.0000000000000000  0.0000000000000000   F   F   F
  0.0001635931482937  0.2505626899817557  0.0000000000000000   F   F   F
  0.5000000000192912  0.1250000000108145  0.0000000000000000   F   F   F
  0.0000000000000000  0.1250000000108145  0.0000000000000000   F   F   F
  0.5000000000192912  0.0000000000000000  0.0000000000000000   F   F   F
  0.4998363942348192  0.2505626899817557  0.0000000000000000   F   F   F
  0.7499999999807088  0.0625000000054072  0.5000000000162999   F   F   F
  0.7499999999807088  0.3087047934269620  0.5000000000162999   F   F   F
  0.2499999999614175  0.1874999950739564  0.5000000000162999   F   F   F
  0.2499999999614175  0.0625000000054072  0.5000000000162999   F   F   F
  0.2499999999614175  0.3081820683335863  0.5000000000162999   F   F   F
  0.7499999999807088  0.1874999950739564  0.5000000000162999   F   F   F
  0.0000000000000000  0.0000000000000000  0.5000000000162999   F   F   F
  0.9996686489136835  0.2489626803018368  0.5000000000162999   F   F   F
  0.5000000000192912  0.1250000000108145  0.5000000000162999   F   F   F
  0.0000000000000000  0.1250000000108145  0.5000000000162999   F   F   F
  0.5000000000192912  0.0000000000000000  0.5000000000162999   F   F   F
  0.5003313511441903  0.2489626803018368  0.5000000000162999   F   F   F
  0.7499999999807088  0.0625000000054072  0.0000000000000000   F   F   F
  0.7499999999807088  0.3125000049280970  0.0000000000000000   F   F   F
  0.2499999999614175  0.1874999950739564  0.0000000000000000   F   F   F
  0.2499999999614175  0.0625000000054072  0.0000000000000000   F   F   F
  0.2499999999614175  0.3064642849821055  0.0000000000000000   F   F   F
  0.7499999999807088  0.1874999950739564  0.0000000000000000   F   F   F
  0.9140865067513744  0.0625000000054072  0.2500000000081499   F   F   F
  0.9140865067513744  0.0625000000054072  0.7499999806308750   F   F   F
  0.9197723704578706  0.3164051738378788  0.2572624349955248   F   F   F
  0.9197723704578706  0.3164051738378788  0.7427376038242102   F   F   F
  0.4140865067320831  0.1874999950739564  0.2500000000081499   F   F   F
  0.4140865067320831  0.1874999950739564  0.7499999806308750   F   F   F
  0.0859135680432601  0.1874999950739564  0.2500000000081499   F   F   F
  0.0859135680432601  0.1874999950739564  0.7499999806308750   F   F   F
  0.5859135392211883  0.0625000000054072  0.2500000000081499   F   F   F
  0.5859135392211883  0.0625000000054072  0.7499999806308750   F   F   F
  0.5802276756111482  0.3164051738378788  0.2572624349955248   F   F   F
  0.5802276756111482  0.3164051738378788  0.7427376038242102   F   F   F
  0.9140865067513744  0.1874999950739564  0.2500000000081499   F   F   F
  0.9140865067513744  0.1874999950739564  0.7499999806308750   F   F   F
  0.4140865067320831  0.0625000000054072  0.2500000000081499   F   F   F
  0.4140865067320831  0.0625000000054072  0.7499999806308750   F   F   F
  0.4186010506965516  0.3157307000165872  0.2551209610294478   F   F   F
  0.4186010506965516  0.3157307000165872  0.7448790777902801   F   F   F
  0.0859135564681281  0.0625000000054072  0.2500000000081499   F   F   F
  0.0859135564681281  0.0625000000054072  0.7499999806308750   F   F   F
  0.0813989722800841  0.3157307000165872  0.2551209610294478   F   F   F
  0.0813989722800841  0.3157307000165872  0.7448790777902801   F   F   F
  0.5859135392211883  0.1874999950739564  0.2500000000081499   F   F   F
  0.5859135392211883  0.1874999950739564  0.7499999806308750   F   F   F
  0.6688061903247373  0.1250000000108145  0.2500000000081499   F   F   F
  0.6688061903247373  0.1250000000108145  0.7499999806308750   F   F   F
  0.1688061903054461  0.0000000000000000  0.2500000000081499   F   F   F
  0.1688061903054461  0.0000000000000000  0.7499999806308750   F   F   F
  0.1658271579744763  0.2519816105619270  0.2463508215430039   F   F   F
  0.1658271579744763  0.2519816105619270  0.7536491978831563   F   F   F
  0.3311938097138452  0.1250000000108145  0.2500000000081499   F   F   F
  0.3311938097138452  0.1250000000108145  0.7499999806308750   F   F   F
  0.8311938096366802  0.0000000000000000  0.2500000000081499   F   F   F
  0.8311938096366802  0.0000000000000000  0.7499999806308750   F   F   F
  0.8338225408112123  0.2530708551649923  0.2438669347129974   F   F   F
  0.8338225408112123  0.2530708551649923  0.7561330653195952   F   F   F
  0.1688061788267703  0.1250000000108145  0.2500000000081499   F   F   F
  0.1688061788267703  0.1250000000108145  0.7499999806308750   F   F   F
  0.6688061903247373  0.0000000000000000  0.2500000000081499   F   F   F
  0.6688061903247373  0.0000000000000000  0.7499999806308750   F   F   F
  0.6661774132355234  0.2530708551649923  0.2438669347129974   F   F   F
  0.6661774132355234  0.2530708551649923  0.7561330653195952   F   F   F
  0.8311938096366802  0.1249999901674812  0.2500000000081499   F   F   F
  0.8311938096366802  0.1249999901674812  0.7499999806308750   F   F   F
  0.3311938097138452  0.0000000000000000  0.2500000000081499   F   F   F
  0.3311938097138452  0.0000000000000000  0.7499999806308750   F   F   F
  0.3341728420448149  0.2519816105619270  0.2463508215430039   F   F   F
  0.3341728420448149  0.2519816105619270  0.7536491978831563   F   F   F
  0.1875043158794402  0.3569161896850960  0.2518612818955988   F   F   T
 
  0.00000000E+00  0.00000000E+00  0.00000000E+00
  0.00000000E+00  0.00000000E+00  0.00000000E+00
  0.00000000E+00  0.00000000E+00  0.00000000E+00
  0.00000000E+00  0.00000000E+00  0.00000000E+00
  0.00000000E+00  0.00000000E+00  0.00000000E+00
  0.00000000E+00  0.00000000E+00  0.00000000E+00
  0.00000000E+00  0.00000000E+00  0.00000000E+00
  0.00000000E+00  0.00000000E+00  0.00000000E+00
  0.00000000E+00  0.00000000E+00  0.00000000E+00
  0.00000000E+00  0.00000000E+00  0.00000000E+00
  0.00000000E+00  0.00000000E+00  0.00000000E+00
  0.00000000E+00  0.00000000E+00  0.00000000E+00
  0.00000000E+00  0.00000000E+00  0.00000000E+00
  0.00000000E+00  0.00000000E+00  0.00000000E+00
  0.00000000E+00  0.00000000E+00  0.00000000E+00
  0.00000000E+00  0.00000000E+00  0.00000000E+00
  0.00000000E+00  0.00000000E+00  0.00000000E+00
  0.00000000E+00  0.00000000E+00  0.00000000E+00
  0.00000000E+00  0.00000000E+00  0.00000000E+00
  0.00000000E+00  0.00000000E+00  0.00000000E+00
  0.00000000E+00  0.00000000E+00  0.00000000E+00
  0.00000000E+00  0.00000000E+00  0.00000000E+00
  0.00000000E+00  0.00000000E+00  0.00000000E+00
  0.00000000E+00  0.00000000E+00  0.00000000E+00
  0.00000000E+00  0.00000000E+00  0.00000000E+00
  0.00000000E+00  0.00000000E+00  0.00000000E+00
  0.00000000E+00  0.00000000E+00  0.00000000E+00
  0.00000000E+00  0.00000000E+00  0.00000000E+00
  0.00000000E+00  0.00000000E+00  0.00000000E+00
  0.00000000E+00  0.00000000E+00  0.00000000E+00
  0.00000000E+00  0.00000000E+00  0.00000000E+00
  0.00000000E+00  0.00000000E+00  0.00000000E+00
  0.00000000E+00  0.00000000E+00  0.00000000E+00
  0.00000000E+00  0.00000000E+00  0.00000000E+00
  0.00000000E+00  0.00000000E+00  0.00000000E+00
  0.00000000E+00  0.00000000E+00  0.00000000E+00
  0.00000000E+00  0.00000000E+00  0.00000000E+00
  0.00000000E+00  0.00000000E+00  0.00000000E+00
  0.00000000E+00  0.00000000E+00  0.00000000E+00
  0.00000000E+00  0.00000000E+00  0.00000000E+00
  0.00000000E+00  0.00000000E+00  0.00000000E+00
  0.00000000E+00  0.00000000E+00  0.00000000E+00
  0.00000000E+00  0.00000000E+00  0.00000000E+00
  0.00000000E+00  0.00000000E+00  0.00000000E+00
  0.00000000E+00  0.00000000E+00  0.00000000E+00
  0.00000000E+00  0.00000000E+00  0.00000000E+00
  0.00000000E+00  0.00000000E+00  0.00000000E+00
  0.00000000E+00  0.00000000E+00  0.00000000E+00
  0.00000000E+00  0.00000000E+00  0.00000000E+00
  0.00000000E+00  0.00000000E+00  0.00000000E+00
  0.00000000E+00  0.00000000E+00  0.00000000E+00
  0.00000000E+00  0.00000000E+00  0.00000000E+00
  0.00000000E+00  0.00000000E+00  0.00000000E+00
  0.00000000E+00  0.00000000E+00  0.00000000E+00
  0.00000000E+00  0.00000000E+00  0.00000000E+00
  0.00000000E+00  0.00000000E+00  0.00000000E+00
  0.00000000E+00  0.00000000E+00  0.00000000E+00
  0.00000000E+00  0.00000000E+00  0.00000000E+00
  0.00000000E+00  0.00000000E+00  0.00000000E+00
  0.00000000E+00  0.00000000E+00  0.00000000E+00
  0.00000000E+00  0.00000000E+00  0.00000000E+00
  0.00000000E+00  0.00000000E+00  0.00000000E+00
  0.00000000E+00  0.00000000E+00  0.00000000E+00
  0.00000000E+00  0.00000000E+00  0.00000000E+00
  0.00000000E+00  0.00000000E+00  0.00000000E+00
  0.00000000E+00  0.00000000E+00  0.00000000E+00
  0.00000000E+00  0.00000000E+00  0.00000000E+00
  0.00000000E+00  0.00000000E+00  0.00000000E+00
  0.00000000E+00  0.00000000E+00  0.00000000E+00
  0.00000000E+00  0.00000000E+00  0.00000000E+00
  0.00000000E+00  0.00000000E+00  0.00000000E+00
  0.00000000E+00  0.00000000E+00  0.00000000E+00
  0.00000000E+00  0.00000000E+00  0.00000000E+00
