MoB2                                    
   1.0000000000000000     
    10.5395298004000004    0.0000000000000000    0.0000000000000000
     0.0000000000000000    6.1412000655999996    0.0000000000000000
     0.0000000000000000    0.0000000000000000   24.1275005341000011
   Mo   V    B    H 
    15     6    48     1
Selective dynamics
Direct
  0.0000000000000000  0.0000000000000000  0.1261009300445366   F   F   F
  0.9993186444238020  0.5000234101150340  0.2514065485327421   F   F   F
  0.4999999999810214  0.0000000000000000  0.0000000000000000   F   F   F
  0.4996670134942960  0.0013736461782514  0.2533821197665986   F   F   F
  0.4999999999810214  0.5000000000325642  0.1261009300445366   F   F   F
  0.2499999547323242  0.0000000000000000  0.0630504650429913   F   F   F
  0.2499999547323242  0.0000000000000000  0.1891513901553949   F   F   F
  0.2506153690935804  0.0002395749990711  0.3091724909696794   F   F   F
  0.2499999547323242  0.5000000000325642  0.0630504650429913   F   F   F
  0.2501496403473240  0.5004927389056988  0.3110912429321786   F   F   F
  0.7499999547133527  0.0000000000000000  0.1891513901553949   F   F   F
  0.7501997919015224  0.0001811527043785  0.3103694109721999   F   F   F
  0.7499999547133527  0.5000000000325642  0.0630504650429913   F   F   F
  0.7499999547133527  0.5000000000325642  0.1891513901553949   F   F   F
  0.7489654796270315  0.5000005823291787  0.3108010199979745   F   F   F
  0.0000000000000000  0.0000000000000000  0.0000000000000000   F   F   F
  0.4999999999810214  0.5000000000325642  0.0000000000000000   F   F   F
  0.0000000000000000  0.5000000000325642  0.1261009300445366   F   F   F
  0.4999999999810214  0.0000000000000000  0.1261009300445366   F   F   F
  0.9995149073538556  0.9999475116269565  0.2520220938512097   F   F   F
  0.5013326248007246  0.5010348993897153  0.2502670208820774   F   F   F
  0.0833333182441081  0.2499999999348645  0.0630504650429913   F   F   F
  0.0833333182441081  0.2499999999348645  0.1891513901553949   F   F   F
  0.0815400262891615  0.2405102713187190  0.3172286128097923   F   F   F
  0.0833333182441081  0.7499999612127937  0.0630504650429913   F   F   F
  0.0833333182441081  0.7499999612127937  0.1891513901553949   F   F   F
  0.0816301328705720  0.7596773980924212  0.3171657262294829   F   F   F
  0.5833333182251295  0.2499999999348645  0.0630504650429913   F   F   F
  0.5833333182251295  0.2499999999348645  0.1891513901553949   F   F   F
  0.5791901242850841  0.2587933835444431  0.3191943419549617   F   F   F
  0.5833333182251295  0.7499999612127937  0.0630504650429913   F   F   F
  0.5833333182251295  0.7499999612127937  0.1891513901553949   F   F   F
  0.5791025343244769  0.7422981388499394  0.3191103680266565   F   F   F
  0.3333333634928053  0.2499999999348645  0.0000000000000000   F   F   F
  0.3333333634928053  0.2499999999348645  0.1261009300445366   F   F   F
  0.3332343045196069  0.2666367342715787  0.2515380134971963   F   F   F
  0.3333333634928053  0.7499999612127937  0.0000000000000000   F   F   F
  0.3333333634928053  0.7499999612127937  0.1261009300445366   F   F   F
  0.3334670557947135  0.7350740700154930  0.2514439010135234   F   F   F
  0.8333333634738267  0.2499999999348645  0.0000000000000000   F   F   F
  0.8333333634738267  0.2499999999348645  0.1261009300445366   F   F   F
  0.8361189587096689  0.2461437896262879  0.2546147914624513   F   F   F
  0.8333333634738267  0.7499999612127937  0.0000000000000000   F   F   F
  0.8333333634738267  0.7499999612127937  0.1261009300445366   F   F   F
  0.8360663866300371  0.7538838716448311  0.2546190603256875   F   F   F
  0.4166666817369133  0.2499999999348645  0.0630504650429913   F   F   F
  0.4150291209228314  0.2593873529577593  0.1893761968233036   F   F   F
  0.4180068620170161  0.2572978128250583  0.3172717164043206   F   F   F
  0.4166666817369133  0.7499999612127937  0.0630504650429913   F   F   F
  0.4166666817369133  0.7499999612127937  0.1891513901553949   F   F   F
  0.4180282166698532  0.7433876618956816  0.3172491270358435   F   F   F
  0.9166666817179419  0.2499999999348645  0.0630504650429913   F   F   F
  0.9166666817179419  0.2499999999348645  0.1891513901553949   F   F   F
  0.9204989224122500  0.2397648735216933  0.3188221807363831   F   F   F
  0.9206418894163306  0.7436280526962165  0.0593461256783030   F   F   F
  0.9166666817179419  0.7499999612127937  0.1891513901553949   F   F   F
  0.9205396408321533  0.7603024451449514  0.3187631875141861   F   F   F
  0.1666666364882161  0.2499999999348645  0.0000000000000000   F   F   F
  0.1666666364882161  0.2499999999348645  0.1261009300445366   F   F   F
  0.1663225315737975  0.2557049134087421  0.2519530609235048   F   F   F
  0.1666666364882161  0.7499999612127937  0.0000000000000000   F   F   F
  0.1666666364882161  0.7499999612127937  0.1261009300445366   F   F   F
  0.1665571038029938  0.7443896784289805  0.2518684347933728   F   F   F
  0.6666666364692446  0.2499999999348645  0.0000000000000000   F   F   F
  0.6666666364692446  0.2499999999348645  0.1261009300445366   F   F   F
  0.6632474620200526  0.2548698543086942  0.2546374401408400   F   F   F
  0.6666666364692446  0.7499999612127937  0.0000000000000000   F   F   F
  0.6666666364692446  0.7499999612127937  0.1261009300445366   F   F   F
  0.6632670973362309  0.7456137613312919  0.2546270841986811   F   F   F
  0.6456075056831558  0.7503146588255305  0.3629851957217608   T   F   T

  0.00000000E+00  0.00000000E+00  0.00000000E+00
  0.00000000E+00  0.00000000E+00  0.00000000E+00
  0.00000000E+00  0.00000000E+00  0.00000000E+00
  0.00000000E+00  0.00000000E+00  0.00000000E+00
  0.00000000E+00  0.00000000E+00  0.00000000E+00
  0.00000000E+00  0.00000000E+00  0.00000000E+00
  0.00000000E+00  0.00000000E+00  0.00000000E+00
  0.00000000E+00  0.00000000E+00  0.00000000E+00
  0.00000000E+00  0.00000000E+00  0.00000000E+00
  0.00000000E+00  0.00000000E+00  0.00000000E+00
  0.00000000E+00  0.00000000E+00  0.00000000E+00
  0.00000000E+00  0.00000000E+00  0.00000000E+00
  0.00000000E+00  0.00000000E+00  0.00000000E+00
  0.00000000E+00  0.00000000E+00  0.00000000E+00
  0.00000000E+00  0.00000000E+00  0.00000000E+00
  0.00000000E+00  0.00000000E+00  0.00000000E+00
  0.00000000E+00  0.00000000E+00  0.00000000E+00
  0.00000000E+00  0.00000000E+00  0.00000000E+00
  0.00000000E+00  0.00000000E+00  0.00000000E+00
  0.00000000E+00  0.00000000E+00  0.00000000E+00
  0.00000000E+00  0.00000000E+00  0.00000000E+00
  0.00000000E+00  0.00000000E+00  0.00000000E+00
  0.00000000E+00  0.00000000E+00  0.00000000E+00
  0.00000000E+00  0.00000000E+00  0.00000000E+00
  0.00000000E+00  0.00000000E+00  0.00000000E+00
  0.00000000E+00  0.00000000E+00  0.00000000E+00
  0.00000000E+00  0.00000000E+00  0.00000000E+00
  0.00000000E+00  0.00000000E+00  0.00000000E+00
  0.00000000E+00  0.00000000E+00  0.00000000E+00
  0.00000000E+00  0.00000000E+00  0.00000000E+00
  0.00000000E+00  0.00000000E+00  0.00000000E+00
  0.00000000E+00  0.00000000E+00  0.00000000E+00
  0.00000000E+00  0.00000000E+00  0.00000000E+00
  0.00000000E+00  0.00000000E+00  0.00000000E+00
  0.00000000E+00  0.00000000E+00  0.00000000E+00
  0.00000000E+00  0.00000000E+00  0.00000000E+00
  0.00000000E+00  0.00000000E+00  0.00000000E+00
  0.00000000E+00  0.00000000E+00  0.00000000E+00
  0.00000000E+00  0.00000000E+00  0.00000000E+00
  0.00000000E+00  0.00000000E+00  0.00000000E+00
  0.00000000E+00  0.00000000E+00  0.00000000E+00
  0.00000000E+00  0.00000000E+00  0.00000000E+00
  0.00000000E+00  0.00000000E+00  0.00000000E+00
  0.00000000E+00  0.00000000E+00  0.00000000E+00
  0.00000000E+00  0.00000000E+00  0.00000000E+00
  0.00000000E+00  0.00000000E+00  0.00000000E+00
  0.00000000E+00  0.00000000E+00  0.00000000E+00
  0.00000000E+00  0.00000000E+00  0.00000000E+00
  0.00000000E+00  0.00000000E+00  0.00000000E+00
  0.00000000E+00  0.00000000E+00  0.00000000E+00
  0.00000000E+00  0.00000000E+00  0.00000000E+00
  0.00000000E+00  0.00000000E+00  0.00000000E+00
  0.00000000E+00  0.00000000E+00  0.00000000E+00
  0.00000000E+00  0.00000000E+00  0.00000000E+00
  0.00000000E+00  0.00000000E+00  0.00000000E+00
  0.00000000E+00  0.00000000E+00  0.00000000E+00
  0.00000000E+00  0.00000000E+00  0.00000000E+00
  0.00000000E+00  0.00000000E+00  0.00000000E+00
  0.00000000E+00  0.00000000E+00  0.00000000E+00
  0.00000000E+00  0.00000000E+00  0.00000000E+00
  0.00000000E+00  0.00000000E+00  0.00000000E+00
  0.00000000E+00  0.00000000E+00  0.00000000E+00
  0.00000000E+00  0.00000000E+00  0.00000000E+00
  0.00000000E+00  0.00000000E+00  0.00000000E+00
  0.00000000E+00  0.00000000E+00  0.00000000E+00
  0.00000000E+00  0.00000000E+00  0.00000000E+00
  0.00000000E+00  0.00000000E+00  0.00000000E+00
  0.00000000E+00  0.00000000E+00  0.00000000E+00
  0.00000000E+00  0.00000000E+00  0.00000000E+00
  0.00000000E+00  0.00000000E+00  0.00000000E+00
