 2 Mo0.5b2
1.0
        6.0780000687         0.0000000000         0.0000000000
       -3.0390007352         5.2637020590         0.0000000000
        0.0000000000         0.0000000000        18.3299999237
   Mo    V    B
  4       3   16
Cartesian
    0.000000    0.000000    4.543396
    0.000000    0.000000    7.676640
    1.517104    2.631720    4.543396
    1.517104    2.631720    7.676640
  4.553928    2.631720    7.676640
  3.041175    0.000000    4.543396
  3.041175    0.000000    7.676640
 -0.027903    1.769227    6.110023
 -0.027903    1.769227    9.243266
  3.062111    3.494214    6.110023
  3.062111    3.494214    9.243266
  1.489201    4.400947    6.110023
  1.489201    4.400947    9.243266
  1.545007    0.862494    6.110023
  1.545007    0.862494    9.243266
 -1.505792    4.374324    6.110023
 -1.505792    4.374324    9.243266
  4.539999    0.889116    6.110023
  4.539999    0.889116    9.243266
  3.059454    1.742604    6.110023
  3.059454    1.742604    9.243266
 -0.025246    3.520837    6.110023
 -0.025246    3.520837    9.243266
