VB2                                     
   1.0000000000000000     
     8.7336034775000009    0.0000000000000000    0.0000000000000000
    -2.1192828999000000    5.6981405835999999    0.0000000000000000
     0.6742611348999999    8.3713961889000004   20.1541324356000011
   Mo   V    B    H 
     8     8    32     2
Selective dynamics
Direct
  0.9988850105131064  0.0023358990646614  0.3990356459499225   F   F   F
  0.4971397618099758  0.9910263563393471  0.2068407528987208   F   F   F
  0.7511148732937798  0.9976640296413279  0.3009643681950607   F   F   F
  0.2528602108873343  0.0089734958274832  0.4931592849138724   F   F   F
  0.2511149887261794  0.4976639845037951  0.3009643681950607   F   F   F
  0.7528601025071922  0.5089734572534965  0.4931592849138724   F   F   F
  0.9971397406582128  0.4910263110263173  0.2068407528987208   F   F   F
  0.4988849598899492  0.5023359859702055  0.3990356459499225   F   F   F
  0.9976308654911108  0.5003364990640407  0.3975876358163575   F   F   F
  0.4976354678156838  0.4876529388092763  0.2080830197678125   F   F   F
  0.7523691071489438  0.4996633531027825  0.3024124019962358   F   F   F
  0.2523644370254559  0.5123467460074096  0.4919170179951635   F   F   F
  0.2523690945015247  0.9996632308172764  0.3024124019962358   F   F   F
  0.7523645180546978  0.0123467844058993  0.4919170179951635   F   F   F
  0.9976354546787931  0.9876530676583286  0.2080830197678125   F   F   F
  0.4976307999579177  0.0003364956945262  0.3975876358163575   F   F   F
  0.2011976884366646  0.3329077568137819  0.4179392734921876   F   F   F
  0.7109149291987791  0.3549711397723527  0.2020887376826792   F   F   F
  0.9572266361844513  0.3370777067615691  0.3163965996242197   F   F   F
  0.4526845797536723  0.3312525930233718  0.5160570185411899   F   F   F
  0.5488023043367463  0.6670921931311895  0.2820608116059944   F   F   F
  0.0390849414998300  0.6450287677675419  0.4979112054595021   F   F   F
  0.2973153128705803  0.6687471580099213  0.1839430311300134   F   F   F
  0.7927733365275174  0.6629221452297642  0.3836034381883735   F   F   F
  0.4572265824062782  0.8370776683630723  0.3163965996242197   F   F   F
  0.9526845602934770  0.8312524707378657  0.5160570185411899   F   F   F
  0.2109150270231410  0.8549711849098856  0.2020887376826792   F   F   F
  0.7011976619242191  0.8329077182397953  0.4179392734921876   F   F   F
  0.2927733153610887  0.1629221000922314  0.3836034381883735   F   F   F
  0.7973154213079710  0.1687471965839080  0.1839430311300134   F   F   F
  0.0488023070883017  0.1670921899371649  0.2820608116059944   F   F   F
  0.5390848107929074  0.1450288900530481  0.4979112054595021   F   F   F
  0.2036346210876800  0.8271541963459299  0.4166027470460065   F   F   F
  0.7149071677342036  0.8508772469175980  0.2040161607620021   F   F   F
  0.9612586027409407  0.8316253445438591  0.3163882005030700   F   F   F
  0.4528677787813180  0.8346552195822241  0.5130292147299826   F   F   F
  0.5463653071283616  0.1728456975889117  0.2833972907665867   F   F   F
  0.0350928186752171  0.1491227094897738  0.4959838060973993   F   F   F
  0.2971321738188237  0.1653445347038627  0.1869707757474046   F   F   F
  0.7887414146617857  0.1683744444404809  0.3836117663563314   F   F   F
  0.4612585949074770  0.3316254666538683  0.3163882005030700   F   F   F
  0.9528679824619601  0.3346554255792498  0.5130292147299826   F   F   F
  0.2149071668810834  0.3508772854915847  0.2040161607620021   F   F   F
  0.7036345313718542  0.3271543186314361  0.4166027470460065   F   F   F
  0.2887414428658062  0.6683744060419841  0.3836117663563314   F   F   F
  0.7971321745574471  0.6653444961298760  0.1869707757474046   F   F   F
  0.0463653661455297  0.6728456172469137  0.2833972907665867   F   F   F
  0.5350926727389904  0.6491226709157871  0.4959838060973993   F   F   F
  0.3149406940256592  0.2105258452535277  0.5588838855123642   T   T   T
  0.3117671271469288  0.7086719247582001  0.5554123720996588   T   T   T

  0.00000000E+00  0.00000000E+00  0.00000000E+00
  0.00000000E+00  0.00000000E+00  0.00000000E+00
  0.00000000E+00  0.00000000E+00  0.00000000E+00
  0.00000000E+00  0.00000000E+00  0.00000000E+00
  0.00000000E+00  0.00000000E+00  0.00000000E+00
  0.00000000E+00  0.00000000E+00  0.00000000E+00
  0.00000000E+00  0.00000000E+00  0.00000000E+00
  0.00000000E+00  0.00000000E+00  0.00000000E+00
  0.00000000E+00  0.00000000E+00  0.00000000E+00
  0.00000000E+00  0.00000000E+00  0.00000000E+00
  0.00000000E+00  0.00000000E+00  0.00000000E+00
  0.00000000E+00  0.00000000E+00  0.00000000E+00
  0.00000000E+00  0.00000000E+00  0.00000000E+00
  0.00000000E+00  0.00000000E+00  0.00000000E+00
  0.00000000E+00  0.00000000E+00  0.00000000E+00
  0.00000000E+00  0.00000000E+00  0.00000000E+00
  0.00000000E+00  0.00000000E+00  0.00000000E+00
  0.00000000E+00  0.00000000E+00  0.00000000E+00
  0.00000000E+00  0.00000000E+00  0.00000000E+00
  0.00000000E+00  0.00000000E+00  0.00000000E+00
  0.00000000E+00  0.00000000E+00  0.00000000E+00
  0.00000000E+00  0.00000000E+00  0.00000000E+00
  0.00000000E+00  0.00000000E+00  0.00000000E+00
  0.00000000E+00  0.00000000E+00  0.00000000E+00
  0.00000000E+00  0.00000000E+00  0.00000000E+00
  0.00000000E+00  0.00000000E+00  0.00000000E+00
  0.00000000E+00  0.00000000E+00  0.00000000E+00
  0.00000000E+00  0.00000000E+00  0.00000000E+00
  0.00000000E+00  0.00000000E+00  0.00000000E+00
  0.00000000E+00  0.00000000E+00  0.00000000E+00
  0.00000000E+00  0.00000000E+00  0.00000000E+00
  0.00000000E+00  0.00000000E+00  0.00000000E+00
  0.00000000E+00  0.00000000E+00  0.00000000E+00
  0.00000000E+00  0.00000000E+00  0.00000000E+00
  0.00000000E+00  0.00000000E+00  0.00000000E+00
  0.00000000E+00  0.00000000E+00  0.00000000E+00
  0.00000000E+00  0.00000000E+00  0.00000000E+00
  0.00000000E+00  0.00000000E+00  0.00000000E+00
  0.00000000E+00  0.00000000E+00  0.00000000E+00
  0.00000000E+00  0.00000000E+00  0.00000000E+00
  0.00000000E+00  0.00000000E+00  0.00000000E+00
  0.00000000E+00  0.00000000E+00  0.00000000E+00
  0.00000000E+00  0.00000000E+00  0.00000000E+00
  0.00000000E+00  0.00000000E+00  0.00000000E+00
  0.00000000E+00  0.00000000E+00  0.00000000E+00
  0.00000000E+00  0.00000000E+00  0.00000000E+00
  0.00000000E+00  0.00000000E+00  0.00000000E+00
  0.00000000E+00  0.00000000E+00  0.00000000E+00
  0.00000000E+00  0.00000000E+00  0.00000000E+00
  0.00000000E+00  0.00000000E+00  0.00000000E+00
