MoB2                                    
   1.0000000000000000     
    10.5395298004000004    0.0000000000000000    0.0000000000000000
     0.0000000000000000    6.1412000655999996    0.0000000000000000
     0.0000000000000000    0.0000000000000000   24.1274995803999985
   Mo   V    B 
    18     6    48
Direct
  0.0000000000000000 -0.0000000000000000  0.1244017490157496
  0.0000000000000000  0.4999999946590279  0.0029933686289748
  0.0000000000000000  0.4999999946590279  0.2539052356170471
  0.5000000094691117 -0.0000000000000000  0.0029933686289748
  0.5000000094691117 -0.0000000000000000  0.2539052356170471
  0.5000000094691117  0.4999999946590279  0.1244017490157496
  0.2498659221772661 -0.0000000000000000  0.0617635684691344
  0.2501396411378748 -0.0000000000000000  0.1901618199762531
  0.2497349645042665 -0.0000000000000000  0.3115336255102208
  0.2501339924109496  0.4999999946590279  0.0617635684691344
  0.2498602734503409  0.4999999946590279  0.1901618199762531
  0.2502649500839493  0.4999999946590279  0.3115336255102208
  0.7501340018800686 -0.0000000000000000  0.0617635684691344
  0.7498602829194598 -0.0000000000000000  0.1901618199762531
  0.7502649595530678 -0.0000000000000000  0.3115336255102208
  0.7498659316463847  0.4999999946590279  0.0617635684691344
  0.7501396506069935  0.4999999946590279  0.1901618199762531
  0.7497349739733855  0.4999999946590279  0.3115336255102208
  0.0000000000000000 -0.0000000000000000  0.0049268133797899
  0.4999999999810214  0.5000000000325642  0.0049268133797899
  0.0000000000000000  0.5000000000325642  0.1245662620522506
  0.4999999999810214 -0.0000000000000000  0.1245662620522506
  0.0000000000000000 -0.0000000000000000  0.2518258955055925
  0.5000000094691117  0.4999999946590279  0.2518258955055925
  0.0832789502917650  0.2499339404854164  0.0598573009468979
  0.0819411259314571  0.2502823102917816  0.1899983824433893
  0.0800816073968248  0.2411707368448646  0.3207611421913777
  0.0832789502917650  0.7500660488326321  0.0598573009468979
  0.0819411259314571  0.7497176790262672  0.1899983824433893
  0.0800816073968248  0.7588292524731842  0.3207611421913777
  0.5832789597608766  0.2500660541736044  0.0598573009468979
  0.5819411354005688  0.2497176843672392  0.1899983824433893
  0.5800816168659365  0.2588292578141561  0.3207611421913777
  0.5832789597608766  0.7499339351444445  0.0598573009468979
  0.5819411354005688  0.7502823049508094  0.1899983824433893
  0.5800816168659365  0.7411707315038923  0.3207611421913777
  0.3310045124336679  0.2496853533775757 -0.0053367769333882
  0.3348345767414173  0.2453062996079300  0.1254852238154841
  0.3361793877724275  0.2544178103228621  0.2554857267797194
  0.3310045124336679  0.7503146359404731 -0.0053367769333882
  0.3348345767414173  0.7546936897101185  0.1254852238154841
  0.3361793877724275  0.7455821789951865  0.2554857267797194
  0.8310045219027797  0.2503146412814451 -0.0053367769333882
  0.8348345862105290  0.2546936950510909  0.1254852238154841
  0.8361793972415391  0.2455821843361586  0.2554857267797194
  0.8310045219027797  0.7496853480366035 -0.0053367769333882
  0.8348345862105290  0.7453062942669580  0.1254852238154841
  0.8361793972415391  0.7544178049818900  0.2554857267797194
  0.4167210591773466  0.2500660541736044  0.0598573009468979
  0.4180588835376546  0.2497176843672392  0.1899983824433893
  0.4199184020722870  0.2588292578141561  0.3207611421913777
  0.4167210591773466  0.7499339351444445  0.0598573009468979
  0.4180588835376546  0.7502823049508094  0.1899983824433893
  0.4199184020722870  0.7411707315038923  0.3207611421913777
  0.9167210686464656  0.2499339404854164  0.0598573009468979
  0.9180588930067735  0.2502823102917816  0.1899983824433893
  0.9199184115414057  0.2411707368448646  0.3207611421913777
  0.9167210686464656  0.7500660488326321  0.0598573009468979
  0.9180588930067735  0.7497176790262672  0.1899983824433893
  0.9199184115414057  0.7588292524731842  0.3207611421913777
  0.1689954970354509  0.2503146412814451 -0.0053367769333882
  0.1651654327277017  0.2546936950510909  0.1254852238154841
  0.1638206216966916  0.2455821843361586  0.2554857267797194
  0.1689954970354509  0.7496853480366035 -0.0053367769333882
  0.1651654327277017  0.7453062942669580  0.1254852238154841
  0.1638206216966916  0.7544178049818900  0.2554857267797194
  0.6689955065045625  0.2496853533775757 -0.0053367769333882
  0.6651654421968133  0.2453062996079300  0.1254852238154841
  0.6638206311658031  0.2544178103228621  0.2554857267797194
  0.6689955065045625  0.7503146359404731 -0.0053367769333882
  0.6651654421968133  0.7546936897101185  0.1254852238154841
  0.6638206311658031  0.7455821789951865  0.2554857267797194

  0.00000000E+00  0.00000000E+00  0.00000000E+00
  0.00000000E+00  0.00000000E+00  0.00000000E+00
  0.00000000E+00  0.00000000E+00  0.00000000E+00
  0.00000000E+00  0.00000000E+00  0.00000000E+00
  0.00000000E+00  0.00000000E+00  0.00000000E+00
  0.00000000E+00  0.00000000E+00  0.00000000E+00
  0.00000000E+00  0.00000000E+00  0.00000000E+00
  0.00000000E+00  0.00000000E+00  0.00000000E+00
  0.00000000E+00  0.00000000E+00  0.00000000E+00
  0.00000000E+00  0.00000000E+00  0.00000000E+00
  0.00000000E+00  0.00000000E+00  0.00000000E+00
  0.00000000E+00  0.00000000E+00  0.00000000E+00
  0.00000000E+00  0.00000000E+00  0.00000000E+00
  0.00000000E+00  0.00000000E+00  0.00000000E+00
  0.00000000E+00  0.00000000E+00  0.00000000E+00
  0.00000000E+00  0.00000000E+00  0.00000000E+00
  0.00000000E+00  0.00000000E+00  0.00000000E+00
  0.00000000E+00  0.00000000E+00  0.00000000E+00
  0.00000000E+00  0.00000000E+00  0.00000000E+00
  0.00000000E+00  0.00000000E+00  0.00000000E+00
  0.00000000E+00  0.00000000E+00  0.00000000E+00
  0.00000000E+00  0.00000000E+00  0.00000000E+00
  0.00000000E+00  0.00000000E+00  0.00000000E+00
  0.00000000E+00  0.00000000E+00  0.00000000E+00
  0.00000000E+00  0.00000000E+00  0.00000000E+00
  0.00000000E+00  0.00000000E+00  0.00000000E+00
  0.00000000E+00  0.00000000E+00  0.00000000E+00
  0.00000000E+00  0.00000000E+00  0.00000000E+00
  0.00000000E+00  0.00000000E+00  0.00000000E+00
  0.00000000E+00  0.00000000E+00  0.00000000E+00
  0.00000000E+00  0.00000000E+00  0.00000000E+00
  0.00000000E+00  0.00000000E+00  0.00000000E+00
  0.00000000E+00  0.00000000E+00  0.00000000E+00
  0.00000000E+00  0.00000000E+00  0.00000000E+00
  0.00000000E+00  0.00000000E+00  0.00000000E+00
  0.00000000E+00  0.00000000E+00  0.00000000E+00
  0.00000000E+00  0.00000000E+00  0.00000000E+00
  0.00000000E+00  0.00000000E+00  0.00000000E+00
  0.00000000E+00  0.00000000E+00  0.00000000E+00
  0.00000000E+00  0.00000000E+00  0.00000000E+00
  0.00000000E+00  0.00000000E+00  0.00000000E+00
  0.00000000E+00  0.00000000E+00  0.00000000E+00
  0.00000000E+00  0.00000000E+00  0.00000000E+00
  0.00000000E+00  0.00000000E+00  0.00000000E+00
  0.00000000E+00  0.00000000E+00  0.00000000E+00
  0.00000000E+00  0.00000000E+00  0.00000000E+00
  0.00000000E+00  0.00000000E+00  0.00000000E+00
  0.00000000E+00  0.00000000E+00  0.00000000E+00
  0.00000000E+00  0.00000000E+00  0.00000000E+00
  0.00000000E+00  0.00000000E+00  0.00000000E+00
  0.00000000E+00  0.00000000E+00  0.00000000E+00
  0.00000000E+00  0.00000000E+00  0.00000000E+00
  0.00000000E+00  0.00000000E+00  0.00000000E+00
  0.00000000E+00  0.00000000E+00  0.00000000E+00
  0.00000000E+00  0.00000000E+00  0.00000000E+00
  0.00000000E+00  0.00000000E+00  0.00000000E+00
  0.00000000E+00  0.00000000E+00  0.00000000E+00
  0.00000000E+00  0.00000000E+00  0.00000000E+00
  0.00000000E+00  0.00000000E+00  0.00000000E+00
  0.00000000E+00  0.00000000E+00  0.00000000E+00
  0.00000000E+00  0.00000000E+00  0.00000000E+00
  0.00000000E+00  0.00000000E+00  0.00000000E+00
  0.00000000E+00  0.00000000E+00  0.00000000E+00
  0.00000000E+00  0.00000000E+00  0.00000000E+00
  0.00000000E+00  0.00000000E+00  0.00000000E+00
  0.00000000E+00  0.00000000E+00  0.00000000E+00
  0.00000000E+00  0.00000000E+00  0.00000000E+00
  0.00000000E+00  0.00000000E+00  0.00000000E+00
  0.00000000E+00  0.00000000E+00  0.00000000E+00
  0.00000000E+00  0.00000000E+00  0.00000000E+00
  0.00000000E+00  0.00000000E+00  0.00000000E+00
  0.00000000E+00  0.00000000E+00  0.00000000E+00
