B2 Mo                                   
   1.0000000000000000     
     6.0780000686999998    0.0000000000000000    0.0000000000000000
    -3.0390007352000001    5.2637020589999999    0.0000000000000000
     0.0000000000000000    0.0000000000000000   18.3299999237000009
   Mo   V    B 
     6     1    16
Direct
 -0.0000000000000000  0.0000000000000000  0.4205645941208800
  0.0000000576782071  0.4999999943955800  0.5822772046911961
  0.0000000576782071  0.4999999943955800  0.4207428487381703
  0.4999999943484710  0.0000000000000000  0.5822772046911961
  0.4999999943484710  0.0000000000000000  0.4207428487381703
  0.5000000520266781  0.4999999943955800  0.5838759075733939
  0.5000000520266781  0.4999999943955800  0.4233390661548583
  0.1646887474031646  0.3303509462086249  0.6679269716672970
  0.1663879943239201  0.3304523200732096  0.4972601560947368
  0.1663805587783832  0.8336192666094343  0.6686519761100270
  0.1634814788108315  0.8365183465769860  0.4984865693722354
  0.6669912574365500  0.3330086747537488  0.6666613145721175
  0.6652086223538854  0.3347913098364136  0.4939159917709712
  0.6696488791320764  0.8353111848342435  0.6679269716672970
  0.6695475052674916  0.8336119379134879  0.4972601560947368
  0.3303510603934749  0.1646888039569165  0.6679269716672970
  0.3304524342580596  0.1663880508776720  0.4972601560947368
  0.3330087516266071  0.6669911240570487  0.6666613145721175
  0.3347913867092719  0.6652084889743842  0.4939159917709712
  0.8336192162193706  0.1663807221817256  0.6686519761100270
  0.8365182961869223  0.1634816422141739  0.4984865693722354
  0.8353110971321881  0.6696488526021728  0.6679269716672970
  0.8336118502114325  0.6695474787375880  0.4972601560947368

  0.00000000E+00  0.00000000E+00  0.00000000E+00
  0.00000000E+00  0.00000000E+00  0.00000000E+00
  0.00000000E+00  0.00000000E+00  0.00000000E+00
  0.00000000E+00  0.00000000E+00  0.00000000E+00
  0.00000000E+00  0.00000000E+00  0.00000000E+00
  0.00000000E+00  0.00000000E+00  0.00000000E+00
  0.00000000E+00  0.00000000E+00  0.00000000E+00
  0.00000000E+00  0.00000000E+00  0.00000000E+00
  0.00000000E+00  0.00000000E+00  0.00000000E+00
  0.00000000E+00  0.00000000E+00  0.00000000E+00
  0.00000000E+00  0.00000000E+00  0.00000000E+00
  0.00000000E+00  0.00000000E+00  0.00000000E+00
  0.00000000E+00  0.00000000E+00  0.00000000E+00
  0.00000000E+00  0.00000000E+00  0.00000000E+00
  0.00000000E+00  0.00000000E+00  0.00000000E+00
  0.00000000E+00  0.00000000E+00  0.00000000E+00
  0.00000000E+00  0.00000000E+00  0.00000000E+00
  0.00000000E+00  0.00000000E+00  0.00000000E+00
  0.00000000E+00  0.00000000E+00  0.00000000E+00
  0.00000000E+00  0.00000000E+00  0.00000000E+00
  0.00000000E+00  0.00000000E+00  0.00000000E+00
  0.00000000E+00  0.00000000E+00  0.00000000E+00
  0.00000000E+00  0.00000000E+00  0.00000000E+00
