B2 Mo                                   
   1.0000000000000000     
     6.0379344752194033   -0.0039017263253120    0.0000000000000000
    -3.0223469276963058    5.2270533762473583    0.0000000000000000
     0.0000000000000000    0.0000000000000000    6.1959826040856836
   Mo   V    B 
     6     2    16
Direct
 -0.0000000000000000 -0.0000000000000000  0.5000000000409131
  0.9999999919906983  0.4999999864164053 -0.0000000000000000
  0.9999999919906983  0.4999999864164053  0.5000000000409131
  0.4999999999424176 -0.0000000000000000 -0.0000000000000000
  0.4999999999424176 -0.0000000000000000  0.5000000000409131
  0.4999999920976350  0.4999999864164053 -0.0000000000000000
 -0.0000000000000000 -0.0000000000000000 -0.0000000000000000
  0.4999999920976350  0.4999999864164053  0.5000000000409131
  0.1680654802937703  0.3319345281041059  0.2499999999386233
  0.1680654802937703  0.3319345281041059  0.7499999805032758
  0.1649328496912150  0.8350671175349517  0.2452296983093507
  0.1649328496912150  0.8350671175349517  0.7547702821325485
  0.6649328772217474  0.3350671311185464  0.2547703015678959
  0.6649328772217474  0.3350671311185464  0.7452296788740030
  0.6680654526480730  0.8319345145205111  0.2499999999386233
  0.6680654526480730  0.8319345145205111  0.7499999805032758
  0.3319344922250587  0.1680654583122994  0.2499999999386233
  0.3319344922250587  0.1680654583122994  0.7499999805032758
  0.3350670842013312  0.6649327964989341  0.2547703015678959
  0.3350670842013312  0.6649327964989341  0.7452296788740030
  0.8350670167021518  0.1649328552978589  0.2452296983093507
  0.8350670167021518  0.1649328552978589  0.7547702821325485
  0.8319344419716891  0.6680653995133746  0.2499999999386233
  0.8319344419716891  0.6680653995133746  0.7499999805032758

  0.00000000E+00  0.00000000E+00  0.00000000E+00
  0.00000000E+00  0.00000000E+00  0.00000000E+00
  0.00000000E+00  0.00000000E+00  0.00000000E+00
  0.00000000E+00  0.00000000E+00  0.00000000E+00
  0.00000000E+00  0.00000000E+00  0.00000000E+00
  0.00000000E+00  0.00000000E+00  0.00000000E+00
  0.00000000E+00  0.00000000E+00  0.00000000E+00
  0.00000000E+00  0.00000000E+00  0.00000000E+00
  0.00000000E+00  0.00000000E+00  0.00000000E+00
  0.00000000E+00  0.00000000E+00  0.00000000E+00
  0.00000000E+00  0.00000000E+00  0.00000000E+00
  0.00000000E+00  0.00000000E+00  0.00000000E+00
  0.00000000E+00  0.00000000E+00  0.00000000E+00
  0.00000000E+00  0.00000000E+00  0.00000000E+00
  0.00000000E+00  0.00000000E+00  0.00000000E+00
  0.00000000E+00  0.00000000E+00  0.00000000E+00
  0.00000000E+00  0.00000000E+00  0.00000000E+00
  0.00000000E+00  0.00000000E+00  0.00000000E+00
  0.00000000E+00  0.00000000E+00  0.00000000E+00
  0.00000000E+00  0.00000000E+00  0.00000000E+00
  0.00000000E+00  0.00000000E+00  0.00000000E+00
  0.00000000E+00  0.00000000E+00  0.00000000E+00
  0.00000000E+00  0.00000000E+00  0.00000000E+00
  0.00000000E+00  0.00000000E+00  0.00000000E+00
