B2 Mo                                   
   1.0000000000000000     
     6.0459553114958791    0.0000000064848640    0.0000000000000000
    -3.0229783472868239    5.2359504905802172   -0.0000000000000000
    -0.0000000000000000    0.0000000000000000    6.7498361562315594
   Mo   B 
     8    16
Direct
 -0.0000000000000000 -0.0000000000000000  0.0000000000000000
 -0.0000000000000000 -0.0000000000000000  0.5000000000409131
  0.9999999919906983  0.4999999864164053  0.0000000000000000
  0.9999999919906983  0.4999999864164053  0.5000000000409131
  0.4999999999424176 -0.0000000000000000  0.0000000000000000
  0.4999999999424176 -0.0000000000000000  0.5000000000409131
  0.4999999920976350  0.4999999864164053 -0.0000000000000000
  0.4999999920976350  0.4999999864164053  0.5000000000409131
  0.1666666689851724  0.3333333394127038  0.2499999999386233
  0.1666666689851724  0.3333333394127038  0.7499999805032758
  0.1666666413970574  0.8333333258291091  0.2499999999386233
  0.1666666413970574  0.8333333258291091  0.7499999805032758
  0.6666666689275900  0.3333333394127038  0.2499999999386233
  0.6666666689275900  0.3333333394127038  0.7499999805032758
  0.6666666413394751  0.8333333258291091  0.2499999999386233
  0.6666666413394751  0.8333333258291091  0.7499999805032758
  0.3333333035336565  0.1666666470037015  0.2499999999386233
  0.3333333035336565  0.1666666470037015  0.7499999805032758
  0.3333332924954888  0.6666665882047766  0.2499999999386233
  0.3333332924954888  0.6666665882047766  0.7499999805032758
  0.8333332249963092  0.1666666470037015  0.2499999999386233
  0.8333332249963092  0.1666666470037015  0.7499999805032758
  0.8333332532802871  0.6666665882047766  0.2499999999386233
  0.8333332532802871  0.6666665882047766  0.7499999805032758

  