MoB2                                    
1.0
        8.6453199387         0.0000000000         0.0000000000
       -2.1414606584         5.6957327635         0.0000000000
       -0.2384319305        -9.8409511943        23.9952660313
   Mo    V    B    H
   12    4   32      1
Selective dynamics
Cartesian
    -1.114690900        -0.423926592         8.087562561   F F F
     7.436020851        -2.081994057        11.986710548  F F F
     4.278699875        -3.271792650         8.087562561   F F F
     2.042629480         0.765872478        11.986710548  F F F
     2.063760281        -4.092710018        10.010985374  F F F
    -0.143407121        -0.053611279        13.908317566  F F F
     0.993796051        -1.257664919        10.007308960  F F F
     0.931497216        -2.900194407        13.906256676  F F F
     4.245725632         1.590201855        10.007308960  F F F
     4.183426857        -0.052327633        13.906256676  F F F
     5.315690517        -1.244844437        10.010985374  F F F
     5.249982834        -2.901477814        13.908317566  F F F
    -0.059620883        -3.269009829         8.106700897   F F F
     6.380539417         0.775751591        11.963632584  F F F
     3.192308187        -0.421143770         8.106700897   F F F
     3.128610373        -2.072114944        11.963632584  F F F
     3.134242296        -2.056242228         9.625209808   F F F
     3.061885595        -3.724165440        14.138789177  F F F
     2.072210789         0.760328531         9.603508949   F F F
     1.999244690        -0.873835087        14.105433464  F F F
     7.465600967        -2.087537289         9.603508949   F F F
     7.392635345        -3.721701384        14.105433464  F F F
     6.386171818         0.791623592         9.625209808   F F F
     6.313816071        -0.876299858        14.138789177  F F F
     0.976927876        -2.897491932        11.684502602  F F F
     1.029238462        -1.244359493         7.621734142   F F F
    -0.136403233        -0.034447193        11.697268486  F F F
    -0.057018496         1.611039639         7.602675438   F F F
     5.256986618        -2.882314205        11.697268486  F F F
     5.336372375        -1.236827493         7.602675438   F F F
     4.228857994        -0.049624920        11.684502602  F F F
     4.281167984         1.603507519         7.621734142   F F F
    -0.105203204        -3.301130056        10.312470436  F F F
    -0.137975872        -4.928614616        14.368642807  F F F
    -1.182658911        -0.431593895        10.317208290  F F F
    -1.210739493        -2.079681873        14.417534828  F F F
     4.210731506        -3.279459715        10.317208290  F F F
     4.182651043        -4.927547932        14.417534828  F F F
     3.146726847        -0.453263998        10.312470436  F F F
     3.113953114        -2.080748796        14.368642807  F F F
     2.119088411        -2.445361853         7.963591099   F F F
     2.053749561        -4.092950821        12.363639832  F F F
     1.088045478         0.400529146         7.782964706   F F F
     1.004433990        -1.260329962        12.365267754  F F F
     6.481433392        -2.447336912         7.782964706   F F F
     6.397822857        -4.108196259        12.365267754  F F F
     5.371016502         0.402503967         7.963591099   F F F
     5.305678844        -1.245085001        12.363639832  F F F
	 4.183426857         1.452327633        14.906256676  T T T
	 
