VB2                                     
1.0
        5.9959998131         0.0000000000         0.0000000000
       -2.9979999065         5.1926881592         0.0000000000
        0.0000000000         0.0000000000        24.4559993744
    V    B    H
   12   32    5
Selective dynamics
Cartesian
     0.000000000         0.000000000         3.112173557   F F F
    -1.498999953         2.596343994         3.112173557   F F F
     1.498999953         2.596343994         3.112173557   F F F
     2.997999907         0.000000000         3.112173557   F F F
     0.000000000         0.000000000         6.113999844   F F F
    -1.498999953         2.596343994         6.113999844   F F F
     1.498999953         2.596343994         6.113999844   F F F
     2.997999907         0.000000000         6.113999844   F F F
     0.000000000         0.000000000         9.115826607   F F F
    -1.498999953         2.596343994         9.115826607   F F F
     1.498999953         2.596343994         9.115826607   F F F
     2.997999907         0.000000000         9.115826607   F F F
     2.997999907         1.730895996         1.573857069   F F F
     0.000000000         3.461791754         1.573857069   F F F
     0.000000000         1.730895996         1.573857069   F F F
     1.498999834         4.327239990         1.573857069   F F F
    -1.498999834         4.327239990         1.573857069   F F F
     2.997999907         3.461791754         1.573857069   F F F
     1.498999953         0.865447998         1.573857069   F F F
     4.496999741         0.865447998         1.573857069   F F F
     2.997999907         1.730895996         4.593724251   F F F
     0.000000000         3.461791754         4.593724251   F F F
     0.000000000         1.730895996         4.593724251   F F F
     1.498999834         4.327239990         4.593724251   F F F
    -1.498999834         4.327239990         4.593724251   F F F
     2.997999907         3.461791754         4.593724251   F F F
     1.498999953         0.865447998         4.593724251   F F F
     4.496999741         0.865447998         4.593724251   F F F
     2.997999907         1.730895996         7.634275436   F F F
     0.000000000         3.461791754         7.634275436   F F F
     0.000000000         1.730895996         7.634275436   F F F
     1.498999834         4.327239990         7.634275436   F F F
    -1.498999834         4.327239990         7.634275436   F F F
     2.997999907         3.461791754         7.634275436   F F F
     1.498999953         0.865447998         7.634275436   F F F
     4.496999741         0.865447998         7.634275436   F F F
     0.000000000         1.730895996        10.654143333  F F F
     1.498999834         4.327239990        10.654143333  F F F
    -1.498999834         4.327239990        10.65414333    F F F
     2.997999907         3.461791754        10.654143333  F F F
     1.498999953         0.865447998        10.654143333  F F F
     4.496999741         0.865447998        10.654143333  F F F
     2.997999907         1.730895996        10.654143333  F F F
     0.000000000         3.461791754        10.654143333  F F F
     0.749499977         1.298171997        11.876942635  F F T
     2.248499870         3.894515991        11.876942635  F F T
    -0.749499917         3.894515991        11.87694263   F F T
     3.747499704         1.298171997        11.876942635  F F T
	 0.749499917         3.894515991        11.876942635 T T T
	