B2 Mo                                   
   1.0000000000000000     
     6.0880565643000004    0.0000000000000000    0.0000000000000000
    -3.0505411110999998    5.2686460937000001    0.0000000000000000
     0.0000000000000000    0.0000000000000000   23.7224636078000017
   Mo   V    B    H 
    10     4    40     2
Direct
  0.0000563267069212  0.5000490933724628  0.0700479542031556
  0.0008515677985326  0.5004870803502689  0.3311353115460134
  0.0001278060519528  0.5000779996189583  0.1994540529518599
  0.0011055045268332  0.5003888422315030  0.4619019263866302
  0.5000319260140168  0.0000459400679089  0.0700439832066100
  0.5005995562612476  0.0002473374747949  0.3311184653390069
  0.5001903296434876  0.0001156493252711  0.1994667538035121
  0.5013109947244716  0.0006128958673226  0.4619536184996297
  0.5000352004233887  0.5000147084374685  0.0694443497072030
  0.5006920035554445  0.5002784195597774  0.3303773804853949
  0.0000107656699539  0.0000394974947480  0.0706711894350653
  0.0006258358523767  0.0003434682415237  0.3304969909463348
  0.5001274655855549  0.5001502495893280  0.1995204767993036
  0.5011023737656042  0.5006249569560376  0.4578822083722957
  0.1652519325682036  0.3262362683519295  0.1363349219412287
  0.1649539794135891  0.3248048098627250  0.3997271305328447
  0.1654568833415636  0.3313511496815204  0.0018261981670997
  0.1729266710808986  0.3336928244681936  0.5235434913598218
  0.1653158110825381  0.3268418414150246  0.2631998086425597
  0.1620804765382777  0.8380632198298739  0.1350427728585357
  0.1635130531974643  0.8379520581188065  0.3984056718157422
  0.1657817276231061  0.8342443107990642  0.0015277681348873
  0.1629243492948339  0.8389949775367066  0.5286740681654440
  0.1630996205311601  0.8374642303705965  0.2642316567017831
  0.6650605813523099  0.3350643852859343  0.1347102593605481
  0.6656299190978807  0.3357894233005466  0.3969150000091609
  0.6668822889901157  0.3331505080085777  0.0007599885082440
  0.6715738790482445  0.3305207249998154  0.5295141889177550
  0.6655667176723135  0.3350434094945260  0.2640602106685105
  0.6738649556269831  0.8348663962120780  0.1363253986100569
  0.6765497560458626  0.8364336449871280  0.3997066064097960
  0.6686739043728399  0.8345679962667268  0.0018252675054921
  0.6683818909219376  0.8292447636654103  0.5234961395819513
  0.6737841004260874  0.8352965584764118  0.2631808583280386
  0.3262432867543087  0.1652248728199417  0.1363412697255655
  0.3254468314712861  0.1644622951316703  0.3997372860593368
  0.3313392048723771  0.1654590926172679  0.0018268519781244
  0.3349383854924781  0.1719966391875545  0.5236652932150095
  0.3270078481263531  0.1651346043730646  0.2632023179242499
  0.3350943863704097  0.6650554620424830  0.1347063027444440
  0.3362931057855888  0.6650994113908116  0.3969365228910042
  0.3331456412387093  0.6668824955772240  0.0007581147674288
  0.3313469227970666  0.6705411524119076  0.5293196875628567
  0.3352455995861025  0.6653362519373414  0.2640476434336859
  0.8380622404565599  0.1620707460490818  0.1350345320357781
  0.8384231575356246  0.1629814484454948  0.3983350506796207
  0.8342395193524514  0.1657885966309877  0.0015275941418898
  0.8401030360199807  0.1620833426792746  0.5286895967909468
  0.8376701795757785  0.1629187475855278  0.2642230698444059
  0.8348920615303865  0.6738712638916865  0.1363329183910436
  0.8369147141292962  0.6760229584239137  0.3997228960183423
  0.8345607184902984  0.6686767935979100  0.0018266003086780
  0.8299692009653481  0.6671647571324685  0.5236233186327387
  0.8354708590618170  0.6735758040959384  0.2631915774125499
  0.2445161070014739  0.7555816910289995  0.5721527252835884
  0.7579084190515002  0.2440612237756114  0.5722780324876132

  0.00000000E+00  0.00000000E+00  0.00000000E+00
  0.00000000E+00  0.00000000E+00  0.00000000E+00
  0.00000000E+00  0.00000000E+00  0.00000000E+00
  0.00000000E+00  0.00000000E+00  0.00000000E+00
  0.00000000E+00  0.00000000E+00  0.00000000E+00
  0.00000000E+00  0.00000000E+00  0.00000000E+00
  0.00000000E+00  0.00000000E+00  0.00000000E+00
  0.00000000E+00  0.00000000E+00  0.00000000E+00
  0.00000000E+00  0.00000000E+00  0.00000000E+00
  0.00000000E+00  0.00000000E+00  0.00000000E+00
  0.00000000E+00  0.00000000E+00  0.00000000E+00
  0.00000000E+00  0.00000000E+00  0.00000000E+00
  0.00000000E+00  0.00000000E+00  0.00000000E+00
  0.00000000E+00  0.00000000E+00  0.00000000E+00
  0.00000000E+00  0.00000000E+00  0.00000000E+00
  0.00000000E+00  0.00000000E+00  0.00000000E+00
  0.00000000E+00  0.00000000E+00  0.00000000E+00
  0.00000000E+00  0.00000000E+00  0.00000000E+00
  0.00000000E+00  0.00000000E+00  0.00000000E+00
  0.00000000E+00  0.00000000E+00  0.00000000E+00
  0.00000000E+00  0.00000000E+00  0.00000000E+00
  0.00000000E+00  0.00000000E+00  0.00000000E+00
  0.00000000E+00  0.00000000E+00  0.00000000E+00
  0.00000000E+00  0.00000000E+00  0.00000000E+00
  0.00000000E+00  0.00000000E+00  0.00000000E+00
  0.00000000E+00  0.00000000E+00  0.00000000E+00
  0.00000000E+00  0.00000000E+00  0.00000000E+00
  0.00000000E+00  0.00000000E+00  0.00000000E+00
  0.00000000E+00  0.00000000E+00  0.00000000E+00
  0.00000000E+00  0.00000000E+00  0.00000000E+00
  0.00000000E+00  0.00000000E+00  0.00000000E+00
  0.00000000E+00  0.00000000E+00  0.00000000E+00
  0.00000000E+00  0.00000000E+00  0.00000000E+00
  0.00000000E+00  0.00000000E+00  0.00000000E+00
  0.00000000E+00  0.00000000E+00  0.00000000E+00
  0.00000000E+00  0.00000000E+00  0.00000000E+00
  0.00000000E+00  0.00000000E+00  0.00000000E+00
  0.00000000E+00  0.00000000E+00  0.00000000E+00
  0.00000000E+00  0.00000000E+00  0.00000000E+00
  0.00000000E+00  0.00000000E+00  0.00000000E+00
  0.00000000E+00  0.00000000E+00  0.00000000E+00
  0.00000000E+00  0.00000000E+00  0.00000000E+00
  0.00000000E+00  0.00000000E+00  0.00000000E+00
  0.00000000E+00  0.00000000E+00  0.00000000E+00
  0.00000000E+00  0.00000000E+00  0.00000000E+00
  0.00000000E+00  0.00000000E+00  0.00000000E+00
  0.00000000E+00  0.00000000E+00  0.00000000E+00
  0.00000000E+00  0.00000000E+00  0.00000000E+00
  0.00000000E+00  0.00000000E+00  0.00000000E+00
  0.00000000E+00  0.00000000E+00  0.00000000E+00
  0.00000000E+00  0.00000000E+00  0.00000000E+00
  0.00000000E+00  0.00000000E+00  0.00000000E+00
  0.00000000E+00  0.00000000E+00  0.00000000E+00
  0.00000000E+00  0.00000000E+00  0.00000000E+00
  0.00000000E+00  0.00000000E+00  0.00000000E+00
  0.00000000E+00  0.00000000E+00  0.00000000E+00
