 2 Mo0.5b2                              
   1.0000000000000000     
     6.0780000686999998    0.0000000000000000    0.0000000000000000
    -3.0390007352000001    5.2637020589999999    0.0000000000000000
     0.0000000000000000    0.0000000000000000   22.2199993133999989
   Mo   V    B    H 
     8     6    40     1
Direct
  0.9990534914233659  0.0001436134062230  0.2060196340098185
  0.9973247127615827  0.0023364656927490  0.4829686764615335
  0.9993622155630932  0.9998135857885210  0.0692868178250431
 -0.0001399607720471  0.0005212003080575  0.3463117726590557
  0.4992928159003513  0.4997539186892286  0.2060048115854952
  0.5002140954648959  0.4995187912894454  0.4829788432599845
  0.4994340004237434  0.4998054077249957  0.0692896796761751
  0.4990324379995975  0.5015534874514727  0.3463019820796178
  0.9992839401527988  0.4996929861688194  0.0701231444155074
  0.9988090160379727  0.5002490127055010  0.3448993933171451
  0.4993433705386083  0.0000641719320093  0.2068674458271714
  0.4984395888571218  0.0006727753499030  0.4847285051309165
  0.4994436266978091  0.9999019585930086  0.0688747818623742
  0.4963908509318691  0.9980983097768804  0.3459174820149426
  0.1653009915656539  0.3340898338043979  0.9968076298836841
  0.1639042811164501  0.3347630213359731  0.5526426251955023
  0.1606373789224148  0.3377883459738560  0.2747645141265518
  0.1609877381038327  0.3384496126880048  0.1383294971255869
  0.1594791834758106  0.3396674998655478  0.4170767523227731
  0.8337348504189207  0.6656567757621482  0.9968121824339454
  0.8321513202515628  0.6664883269755031  0.5528867036652227
  0.8365625657400532  0.6618403047844933  0.2748078282834046
  0.8379788699830242  0.6614651353160744  0.1383654242347740
  0.8377971489422816  0.6613996737355031  0.4171161802737309
  0.6655104682112435  0.8340921121679461  0.9970194651279504
  0.6641140779950609  0.8353925671757623  0.5522676440539793
  0.6629733353233612  0.8362253097394876  0.2755233526488154
  0.6626291614782532  0.8365720324411835  0.1366426339863188
  0.6620309568714936  0.8374885514661546  0.4142248049470413
  0.3337357566181051  0.1658819480058188  0.9970186958475524
  0.3329124029005088  0.1665644173019940  0.5523196986871157
  0.3350105835610314  0.1641637449022505  0.2755489259194066
  0.3360774106349025  0.1631300748905894  0.1366512215594469
  0.3356465093822607  0.1640578087105074  0.4142559729344060
  0.1670456612424553  0.8320204881849775  0.9980069812234275
  0.1671824548464444  0.8348466273472380  0.5547058524337188
  0.1663168514541650  0.8284584444847202  0.2747934180641118
  0.1670406234276870  0.8280449655996142  0.1379951811287090
  0.1661164371951149  0.8286453391472819  0.4166656279334769
  0.8321003320075503  0.1678627486280618  0.9979714525123612
  0.8324000818547584  0.1710110691924040  0.5523999927068444
  0.8312090632566479  0.1713546704462314  0.2747003111325542
  0.8317982167799832  0.1717236933040260  0.1380507589024305
  0.8317678142580990  0.1735164155725600  0.4170651312925235
  0.6675035735405830  0.3324670246029438  0.9979767410234274
  0.6684219595284048  0.3347360679809713  0.5525507790977817
  0.6701440617848806  0.3323515783622421  0.2747469391024810
  0.6712458467108737  0.3323240365252242  0.1380692642468224
  0.6716112454756191  0.3337217498249520  0.4170762209605513
  0.3316701789756740  0.6674018423197720  0.9980024298694761
  0.3321665467463599  0.6696492873514043  0.5545054430687487
  0.3272918915418834  0.6674796457646894  0.2747475811235314
  0.3275392983241169  0.6675708447768982  0.1379709910307307
  0.3266752023346738  0.6680142001381755  0.4166226666602294
  0.2466315302595566  0.7484984690693153  0.6015672170808007

  0.00000000E+00  0.00000000E+00  0.00000000E+00
  0.00000000E+00  0.00000000E+00  0.00000000E+00
  0.00000000E+00  0.00000000E+00  0.00000000E+00
  0.00000000E+00  0.00000000E+00  0.00000000E+00
  0.00000000E+00  0.00000000E+00  0.00000000E+00
  0.00000000E+00  0.00000000E+00  0.00000000E+00
  0.00000000E+00  0.00000000E+00  0.00000000E+00
  0.00000000E+00  0.00000000E+00  0.00000000E+00
  0.00000000E+00  0.00000000E+00  0.00000000E+00
  0.00000000E+00  0.00000000E+00  0.00000000E+00
  0.00000000E+00  0.00000000E+00  0.00000000E+00
  0.00000000E+00  0.00000000E+00  0.00000000E+00
  0.00000000E+00  0.00000000E+00  0.00000000E+00
  0.00000000E+00  0.00000000E+00  0.00000000E+00
  0.00000000E+00  0.00000000E+00  0.00000000E+00
  0.00000000E+00  0.00000000E+00  0.00000000E+00
  0.00000000E+00  0.00000000E+00  0.00000000E+00
  0.00000000E+00  0.00000000E+00  0.00000000E+00
  0.00000000E+00  0.00000000E+00  0.00000000E+00
  0.00000000E+00  0.00000000E+00  0.00000000E+00
  0.00000000E+00  0.00000000E+00  0.00000000E+00
  0.00000000E+00  0.00000000E+00  0.00000000E+00
  0.00000000E+00  0.00000000E+00  0.00000000E+00
  0.00000000E+00  0.00000000E+00  0.00000000E+00
  0.00000000E+00  0.00000000E+00  0.00000000E+00
  0.00000000E+00  0.00000000E+00  0.00000000E+00
  0.00000000E+00  0.00000000E+00  0.00000000E+00
  0.00000000E+00  0.00000000E+00  0.00000000E+00
  0.00000000E+00  0.00000000E+00  0.00000000E+00
  0.00000000E+00  0.00000000E+00  0.00000000E+00
  0.00000000E+00  0.00000000E+00  0.00000000E+00
  0.00000000E+00  0.00000000E+00  0.00000000E+00
  0.00000000E+00  0.00000000E+00  0.00000000E+00
  0.00000000E+00  0.00000000E+00  0.00000000E+00
  0.00000000E+00  0.00000000E+00  0.00000000E+00
  0.00000000E+00  0.00000000E+00  0.00000000E+00
  0.00000000E+00  0.00000000E+00  0.00000000E+00
  0.00000000E+00  0.00000000E+00  0.00000000E+00
  0.00000000E+00  0.00000000E+00  0.00000000E+00
  0.00000000E+00  0.00000000E+00  0.00000000E+00
  0.00000000E+00  0.00000000E+00  0.00000000E+00
  0.00000000E+00  0.00000000E+00  0.00000000E+00
  0.00000000E+00  0.00000000E+00  0.00000000E+00
  0.00000000E+00  0.00000000E+00  0.00000000E+00
  0.00000000E+00  0.00000000E+00  0.00000000E+00
  0.00000000E+00  0.00000000E+00  0.00000000E+00
  0.00000000E+00  0.00000000E+00  0.00000000E+00
  0.00000000E+00  0.00000000E+00  0.00000000E+00
  0.00000000E+00  0.00000000E+00  0.00000000E+00
  0.00000000E+00  0.00000000E+00  0.00000000E+00
  0.00000000E+00  0.00000000E+00  0.00000000E+00
  0.00000000E+00  0.00000000E+00  0.00000000E+00
  0.00000000E+00  0.00000000E+00  0.00000000E+00
  0.00000000E+00  0.00000000E+00  0.00000000E+00
  0.00000000E+00  0.00000000E+00  0.00000000E+00
