B2 Mo                                   
1.0
        6.0880565643         0.0000000000         0.0000000000
       -3.0505411111         5.2686460937         0.0000000000
        0.0000000000         0.0000000000        23.7224636078
   Mo    V    B    H
   10    4   40    5
Selective dynamics
Cartesian
    -1.524722934         2.635289192         1.651978135    F F F 
    -1.518771410         2.639314175         7.843202591    F F F 
    -1.523757935         2.635979414         4.719350815    F F F  
    -1.518443823         2.639935017        10.929435730    F F F 
     3.044338942         0.000923678         1.651890874     F F F 
     3.049214840         0.003672117         7.843414783     F F F 
     3.046027899         0.001832948         4.719531536     F F F 
     3.050745964         0.005114034        10.930501938    F F F 
     1.519261241         2.634889603         1.641456842     F F F 
     1.524646521         2.638202667         7.834989071     F F F 
     0.000207885         0.000870660         1.669173121     F F F 
     0.005035318         0.004105391         7.826195717     F F F 
     1.519905567         2.636621952         4.718077183     F F F 
     1.525474906         2.639669657        10.795571327    F F F 
     0.011144280         1.718865156         3.225605249     F F F 
     0.011711538         1.706233025         9.484414101     F F F 
    -0.002559423         1.746115804         0.033098601     F F F 
     0.055739045         1.784613132        12.464715004    F F F 
     0.011168122         1.727448821         6.241422653     F F F 
    -1.569942117         4.416779995         3.197959185     F F F 
    -1.561116457         4.419206142         9.441829681     F F F 
    -1.535425544         4.395668983         0.029764324     F F F 
    -1.564437151         4.421427727        12.495246887    F F F 
    -1.564966917         4.417441368         6.261266232     F F F 
     3.027262449         1.766371250         3.187973499     F F F 
     3.030689716         1.771380544         9.411372185     F F F 
     3.042943001         1.756124735         0.009378870     F F F 
     3.094532967         1.736144543        12.554854393    F F F 
     3.030911446         1.767806530         6.260233402     F F F 
     1.556827068         4.400153160         3.225046396     F F F 
     1.573928595         4.416415691         9.484631538     F F F 
     1.525509596         4.396655560         0.033011980     F F F 
     1.529301167         4.341784000        12.465324402    F F F 
     1.552961111         4.401385307         6.240982056     F F F 
     1.482226372         0.870719492         3.225974560     F F F 
     1.476405740         0.862474084         9.484594345     F F F 
     1.512142897         0.872866571         0.033128317     F F F 
     1.522978783         0.938604474        12.465874672    F F F 
     1.492261291         0.873719215         6.241733551     F F F 
     0.011941195         3.504765987         3.187728882     F F F 
     0.019779205         3.507428408         9.411354065     F F F 
    -0.005141497         3.513411999         0.009347333     F F F 
    -0.042434454         3.544213772        12.555364609    F F F 
     0.014386177         3.506892920         6.259511471     F F F 
     4.609030724         0.854401827         3.197624207     F F F 
     4.611208439         0.860182703         9.442271233     F F F 
     4.573180199         0.873920798         0.029788213     F F F 
     4.616757393         0.858674586        12.494497299    F F F 
     4.609842777         0.857400358         6.260998249     F F F 
     3.028076410         3.552000761         3.225243568     F F F 
     3.037939072         3.572147131         9.483870506     F F F 
     3.040253401         3.523412704         0.033077687     F F F 
     2.996780872         3.495484829        12.463962555    F F F 
     3.033646345         3.547433376         6.241260052     F F F 
    -0.864830375         4.014708996        13.548382759    F F T 
     0.840582848         1.451900482        13.520938873    F F T 
     3.916474581         1.264570475        13.547451019    F F T 
     2.212908983         3.828425407        13.520024300    F F T 
	 0.864830375         4.014708996        13.548382759    T T T
	