B2 Mo                                   
   1.0000000000000000     
     6.0880565643000004    0.0000000000000000    0.0000000000000000
    -3.0505411110999998    5.2686460937000001    0.0000000000000000
     0.0000000000000000    0.0000000000000000   23.7224636078000017
   Mo   V    B    H 
    10     4    40     3
Direct
  0.0000423459230143  0.4998385468117330  0.0698074097895791
  0.0032502259751186  0.5004027118256787  0.3308631286292160
 -0.0007658796563522  0.4991192142693185  0.1992433637422454
  0.0024900814582263  0.5018744594480334  0.4616854722001186
  0.4999497027546285 -0.0001638793459230  0.0698044894364354
  0.5013494734537526  0.0012617502508366  0.3308655610725171
  0.4998216820283771 -0.0012138637902091  0.1992558671197705
  0.5037106704364150  0.0006808122963663  0.4617003248044722
  0.5000652356651295  0.4998196616619890  0.0692845611258755
  0.5008431906947195  0.4993090208886193  0.3301696279543228
 -0.0005820418962484 -0.0007223703226310  0.0704935697276267
 -0.0007336073800707 -0.0019096381527458  0.3302593747590682
  0.4999359590254784  0.4995884434815785  0.1992226055653464
  0.5002705197756721  0.4985518531028905  0.4562769831209672
  0.1650707915041507  0.3257221797866109  0.1360847234825444
  0.1648437628242103  0.3238161970641799  0.3990099548917572
  0.1654419140322448  0.3311483727645461  0.0015880234197513
  0.1774135149665144  0.3370115508780396  0.5260181666517053
  0.1653490102408773  0.3261860910819557  0.2632637442181481
  0.1619701455327881  0.8376974408594094  0.1349308411351580
  0.1633149383780396  0.8364507625441242  0.3982751838171583
  0.1656205017475853  0.8339582355036816  0.0013428976094515
  0.1623696502177486  0.8378715986609191  0.5278920148484553
  0.1623830664700348  0.8365708263136084  0.2641070393248257
  0.6648885446670334  0.3345542638150645  0.1345412995861019
  0.6661342651915249  0.3354326012121524  0.3968691569404693
  0.6667886016576625  0.3330043868802365  0.0005514859255628
  0.6733117274932122  0.3291128822716410  0.5299697194081735
  0.6657360866110533  0.3344274047575069  0.2639538120252676
  0.6736985999034549  0.8344401053713447  0.1361745800316253
  0.6783463815976545  0.8368986571893458  0.4003553501841638
  0.6686302153169577  0.8343472696360912  0.0015715439740804
  0.6663626707398470  0.8261113083466292  0.5231019949007993
  0.6734253560354073  0.8343378375656663  0.2629458086456051
  0.3260389413426017  0.1647253728820038  0.1361201076955230
  0.3256089708096551  0.1633651070829520  0.3990063622355424
  0.3312406322340186  0.1653458868060542  0.0015911789642000
  0.3393628202286800  0.1752046307188169  0.5261602963261085
  0.3271978158478879  0.1644055941751036  0.2633066161777659
  0.3348667533281225  0.6645829183927879  0.1345270515410966
  0.3371186647530878  0.6644990319317959  0.3968894576962132
  0.3331197203918843  0.6666843768363564  0.0005492579854076
  0.3312317620109992  0.6710149841026549  0.5298318734087606
  0.3354753801648863  0.6647023530340392  0.2639069801765097
  0.8379840867842935  0.1616798073732022  0.1348865296262035
  0.8379662071619298  0.1617542913701979  0.3982388061487115
  0.8340548056781635  0.1655346756815426  0.0013403470379665
  0.8402222826043874  0.1602263826163000  0.5277403840086935
  0.8375861580652645  0.1613965147117490  0.2640674218261940
  0.8347956459077167  0.6734191675456088  0.1361970868015725
  0.8384570768788836  0.6766276975632333  0.4003470448828527
  0.8344522321002391  0.6685494958383228  0.0015772539294333
  0.8281145652016425  0.6639272845029869  0.5232230206552341
  0.8352716779640450  0.6723800077200495  0.2629725538627384
  0.2427606646633584  0.7596706156003608  0.5718625985167980
  0.2750046781683785  0.2730594200288597  0.5701599169056268
  0.7622818517554566  0.2399884201335022  0.5718407656076099

  0.00000000E+00  0.00000000E+00  0.00000000E+00
  0.00000000E+00  0.00000000E+00  0.00000000E+00
  0.00000000E+00  0.00000000E+00  0.00000000E+00
  0.00000000E+00  0.00000000E+00  0.00000000E+00
  0.00000000E+00  0.00000000E+00  0.00000000E+00
  0.00000000E+00  0.00000000E+00  0.00000000E+00
  0.00000000E+00  0.00000000E+00  0.00000000E+00
  0.00000000E+00  0.00000000E+00  0.00000000E+00
  0.00000000E+00  0.00000000E+00  0.00000000E+00
  0.00000000E+00  0.00000000E+00  0.00000000E+00
  0.00000000E+00  0.00000000E+00  0.00000000E+00
  0.00000000E+00  0.00000000E+00  0.00000000E+00
  0.00000000E+00  0.00000000E+00  0.00000000E+00
  0.00000000E+00  0.00000000E+00  0.00000000E+00
  0.00000000E+00  0.00000000E+00  0.00000000E+00
  0.00000000E+00  0.00000000E+00  0.00000000E+00
  0.00000000E+00  0.00000000E+00  0.00000000E+00
  0.00000000E+00  0.00000000E+00  0.00000000E+00
  0.00000000E+00  0.00000000E+00  0.00000000E+00
  0.00000000E+00  0.00000000E+00  0.00000000E+00
  0.00000000E+00  0.00000000E+00  0.00000000E+00
  0.00000000E+00  0.00000000E+00  0.00000000E+00
  0.00000000E+00  0.00000000E+00  0.00000000E+00
  0.00000000E+00  0.00000000E+00  0.00000000E+00
  0.00000000E+00  0.00000000E+00  0.00000000E+00
  0.00000000E+00  0.00000000E+00  0.00000000E+00
  0.00000000E+00  0.00000000E+00  0.00000000E+00
  0.00000000E+00  0.00000000E+00  0.00000000E+00
  0.00000000E+00  0.00000000E+00  0.00000000E+00
  0.00000000E+00  0.00000000E+00  0.00000000E+00
  0.00000000E+00  0.00000000E+00  0.00000000E+00
  0.00000000E+00  0.00000000E+00  0.00000000E+00
  0.00000000E+00  0.00000000E+00  0.00000000E+00
  0.00000000E+00  0.00000000E+00  0.00000000E+00
  0.00000000E+00  0.00000000E+00  0.00000000E+00
  0.00000000E+00  0.00000000E+00  0.00000000E+00
  0.00000000E+00  0.00000000E+00  0.00000000E+00
  0.00000000E+00  0.00000000E+00  0.00000000E+00
  0.00000000E+00  0.00000000E+00  0.00000000E+00
  0.00000000E+00  0.00000000E+00  0.00000000E+00
  0.00000000E+00  0.00000000E+00  0.00000000E+00
  0.00000000E+00  0.00000000E+00  0.00000000E+00
  0.00000000E+00  0.00000000E+00  0.00000000E+00
  0.00000000E+00  0.00000000E+00  0.00000000E+00
  0.00000000E+00  0.00000000E+00  0.00000000E+00
  0.00000000E+00  0.00000000E+00  0.00000000E+00
  0.00000000E+00  0.00000000E+00  0.00000000E+00
  0.00000000E+00  0.00000000E+00  0.00000000E+00
  0.00000000E+00  0.00000000E+00  0.00000000E+00
  0.00000000E+00  0.00000000E+00  0.00000000E+00
  0.00000000E+00  0.00000000E+00  0.00000000E+00
  0.00000000E+00  0.00000000E+00  0.00000000E+00
  0.00000000E+00  0.00000000E+00  0.00000000E+00
  0.00000000E+00  0.00000000E+00  0.00000000E+00
  0.00000000E+00  0.00000000E+00  0.00000000E+00
  0.00000000E+00  0.00000000E+00  0.00000000E+00
  0.00000000E+00  0.00000000E+00  0.00000000E+00
