VB2                                     
   1.0000000000000000     
     8.7336034775000009    0.0000000000000000    0.0000000000000000
    -2.1192828999000000    5.6981405835999999    0.0000000000000000
     0.6742611348999999    8.3713961889000004   20.1541324356000011
   Mo   V    B 
     8     8    32
Direct
 -0.0011149813719602  0.0023359747339195  0.3990356289942041
  0.4971397440616393  0.9910263613913861  0.2068407605926483
  0.7511149218951917 -0.0023360178203286  0.3009643614831832
  0.2528602373017982  0.0089736024461665  0.4931592536019591
  0.2511149874856404  0.4976639855491929  0.3009643614831832
  0.7528601834663694  0.5089735640476769  0.4931592536019591
  0.9971397243619630  0.4910263228173997  0.2068407605926483
  0.4988849512389943  0.5023359361599329  0.3990356289942041
  0.9976308668496502  0.5003365509156618  0.3975876295151978
  0.4976354606098171  0.4876530175824946  0.2080830026861943
  0.7523690855005155  0.4996633707934640  0.3024123609621895
  0.2523644949651326  0.5123468692825820  0.4919170115084133
  0.2523691290860735 -0.0003366325760575  0.3024123609621895
  0.7523644941266777  0.0123469076810715  0.4919170115084133
  0.9976354667412114  0.9876530561564810  0.2080830026861943
  0.4976307978116130  0.0003365894896484  0.3975876295151978
  0.2011976942546589  0.3329077945699636  0.4179392483912534
  0.7109149833447397  0.3549711448907156  0.2020887217969593
  0.9572265672301776  0.3370777394388552  0.3163966002098167
  0.4526846148488788  0.3312527260876885  0.5160570334820620
  0.5488023091351840  0.6670921760795269  0.2820607657537368
  0.0390849349644605  0.6450287625762844  0.4979112213948391
  0.2973153491072920  0.6687471574948868  0.1839430398071270
  0.7927733611298911  0.6629221473236189  0.3836034139351736
  0.4572266226852673  0.8370777010403654  0.3163966002098167
  0.9526845611279540  0.8312526876891985  0.5160570334820620
  0.2109150401505637  0.8549712389686203  0.2020887454645623
  0.7011976606899631  0.8329078397074964  0.4179392483912534
  0.2927733533390171  0.1629222696091250  0.3836034139351736
  0.7973154165535861  0.1687471960688733  0.1839430398071270
  0.0488023201475023  0.1670922144780165  0.2820607657537368
  0.5390849203182349  0.1450288846862937  0.4979112213948391
  0.2036346243407327  0.8271542338920849  0.4166027411551953
  0.7149071366464902  0.8508772238159288  0.2040161503036703
  0.9612585547034981  0.8316253955677567  0.3163881845893701
  0.4528678202064226  0.8346552498804506  0.5130292416989081
  0.5463653175750417  0.1728456948139045  0.2833972729897949
  0.0350928225118686  0.1491227325914432  0.4959838165557314
  0.2971321749294718  0.1653445706951308  0.1869707606370890
  0.7887414284174313  0.1683744772009901  0.3836117822204142
  0.4612586014866693  0.3316255176777660  0.3163881845893701
  0.9528679146112194  0.3346554557019795  0.5130292416989081
  0.2149071732942950  0.3508773041579266  0.2040161503036703
  0.7036346404231643  0.3271543561775910  0.4166027411551953
  0.2887414429533308  0.6683744386270035  0.3836117822204142
  0.7971322030336540  0.6653445321211443  0.1869707606370890
  0.0463653559821647  0.6728456144719065  0.2833972729897949
  0.5350927858088973  0.6491226940174564  0.4959838165557314

  0.00000000E+00  0.00000000E+00  0.00000000E+00
  0.00000000E+00  0.00000000E+00  0.00000000E+00
  0.00000000E+00  0.00000000E+00  0.00000000E+00
  0.00000000E+00  0.00000000E+00  0.00000000E+00
  0.00000000E+00  0.00000000E+00  0.00000000E+00
  0.00000000E+00  0.00000000E+00  0.00000000E+00
  0.00000000E+00  0.00000000E+00  0.00000000E+00
  0.00000000E+00  0.00000000E+00  0.00000000E+00
  0.00000000E+00  0.00000000E+00  0.00000000E+00
  0.00000000E+00  0.00000000E+00  0.00000000E+00
  0.00000000E+00  0.00000000E+00  0.00000000E+00
  0.00000000E+00  0.00000000E+00  0.00000000E+00
  0.00000000E+00  0.00000000E+00  0.00000000E+00
  0.00000000E+00  0.00000000E+00  0.00000000E+00
  0.00000000E+00  0.00000000E+00  0.00000000E+00
  0.00000000E+00  0.00000000E+00  0.00000000E+00
  0.00000000E+00  0.00000000E+00  0.00000000E+00
  0.00000000E+00  0.00000000E+00  0.00000000E+00
  0.00000000E+00  0.00000000E+00  0.00000000E+00
  0.00000000E+00  0.00000000E+00  0.00000000E+00
  0.00000000E+00  0.00000000E+00  0.00000000E+00
  0.00000000E+00  0.00000000E+00  0.00000000E+00
  0.00000000E+00  0.00000000E+00  0.00000000E+00
  0.00000000E+00  0.00000000E+00  0.00000000E+00
  0.00000000E+00  0.00000000E+00  0.00000000E+00
  0.00000000E+00  0.00000000E+00  0.00000000E+00
  0.00000000E+00  0.00000000E+00  0.00000000E+00
  0.00000000E+00  0.00000000E+00  0.00000000E+00
  0.00000000E+00  0.00000000E+00  0.00000000E+00
  0.00000000E+00  0.00000000E+00  0.00000000E+00
  0.00000000E+00  0.00000000E+00  0.00000000E+00
  0.00000000E+00  0.00000000E+00  0.00000000E+00
  0.00000000E+00  0.00000000E+00  0.00000000E+00
  0.00000000E+00  0.00000000E+00  0.00000000E+00
  0.00000000E+00  0.00000000E+00  0.00000000E+00
  0.00000000E+00  0.00000000E+00  0.00000000E+00
  0.00000000E+00  0.00000000E+00  0.00000000E+00
  0.00000000E+00  0.00000000E+00  0.00000000E+00
  0.00000000E+00  0.00000000E+00  0.00000000E+00
  0.00000000E+00  0.00000000E+00  0.00000000E+00
  0.00000000E+00  0.00000000E+00  0.00000000E+00
  0.00000000E+00  0.00000000E+00  0.00000000E+00
  0.00000000E+00  0.00000000E+00  0.00000000E+00
  0.00000000E+00  0.00000000E+00  0.00000000E+00
  0.00000000E+00  0.00000000E+00  0.00000000E+00
  0.00000000E+00  0.00000000E+00  0.00000000E+00
  0.00000000E+00  0.00000000E+00  0.00000000E+00
  0.00000000E+00  0.00000000E+00  0.00000000E+00
