MoB2                                    
   1.0000000000000000     
     8.6453199387000002    0.0000000000000000    0.0000000000000000
    -2.1414606584000002    5.6957327634999997    0.0000000000000000
    -0.2384319305000000   -9.8409511943000005   23.9952660313000017
   Mo   V    B    H 
    12     4    32     1
Selective dynamics
Direct
  0.9938210512021541  0.4921685657564296  0.6629583389177469   F   F   F
  0.0028379178872555  0.5024267148331987  0.5004508972451447   F   F   F
  0.4938210303289381  0.9921685928381123  0.6629583389177469   F   F   F
  0.5028379284889084  0.0024268134596639  0.5004508972451447   F   F   F
  0.2543443130216900  0.0079389403953058  0.4204519626429573   F   F   F
  0.2497820023303348  0.0002273208551813  0.5829447386311060   F   F   F
  0.2548644333144665  0.5078283063323923  0.4203553045772779   F   F   F
  0.2492068773029175  0.4977022681209107  0.5827836948654337   F   F   F
  0.7548644885809352  0.0078283629976212  0.4203553045772779   F   F   F
  0.7492068220670660  0.9977022950270182  0.5827836948654337   F   F   F
  0.7543443231989926  0.5079389255157452  0.4204519626429573   F   F   F
  0.7497818538853096  0.5002272222287090  0.5829447386311060   F   F   F
  0.0010321790630456  0.0023097752496994  0.5014071444053130   F   F   F
  0.5010322486386798  0.5023097185844705  0.5014071444053130   F   F   F
  0.9951932004343291  0.9901636627131296  0.6621534379437435   F   F   F
  0.4951932350810040  0.4901636358070220  0.6621534379437435   F   F   F
  0.4575189288785424  0.3307094854155039  0.4011994013920273   F   F   F
  0.4599938181550414  0.3370334062746352  0.5702220813535490   F   F   F
  0.4567228431608754  0.8270033934877574  0.3991429533853363   F   F   F
  0.4597275559110088  0.8329391817539289  0.5700396949197284   F   F   F
  0.9567228709414906  0.3270034503285544  0.3991429533853363   F   F   F
  0.9597276112209698  0.3329392385947259  0.5700396949197284   F   F   F
  0.9575188736467695  0.8307094287502750  0.4011994013920273   F   F   F
  0.9599939558600283  0.8370333496094062  0.5702220813535490   F   F   F
  0.2056805412123239  0.3283489061968723  0.4847465851317239   F   F   F
  0.2100037394428895  0.3556671204757578  0.6680112663094135   F   F   F
  0.2038558538606239  0.8308839135030652  0.4846670171037033   F   F   F
  0.2090877581154089  0.8695888339166800  0.6758595672098622   F   F   F
  0.7038558229573866  0.3308838865969577  0.4846670171037033   F   F   F
  0.7090879289751442  0.3695889743288205  0.6758595672098622   F   F   F
  0.7056806444831238  0.8283490168498844  0.4847465851317239   F   F   F
  0.7100036220530939  0.8556670636349608  0.6680112663094135   F   F   F
  0.0393315966093084  0.1355708384463412  0.4106207009394112   F   F   F
  0.0441090923922900  0.1679313771360711  0.5988685583754503   F   F   F
  0.0390107715666730  0.6379929470598498  0.4122964385597996   F   F   F
  0.0449487874967502  0.6749998277565794  0.5997604595101151   F   F   F
  0.5390107959330024  0.1379930456863221  0.4122964385597996   F   F   F
  0.5449488289985567  0.1749998844218084  0.5997604595101151   F   F   F
  0.5393316265266890  0.6355707398198689  0.4106207009394112   F   F   F
  0.5441089972709179  0.6679312785096059  0.5988685583754503   F   F   F
  0.2903416073618601  0.1697430402628157  0.6823585501257696   F   F   F
  0.2911479853968117  0.1673529642757430  0.5130387022566012   F   F   F
  0.2922257698863575  0.6697172668839855  0.6831630536047015   F   F   F
  0.2952116559636053  0.6637526470525970  0.5124992135514859   F   F   F
  0.7922255872805053  0.1697172817635462  0.6831630536047015   F   F   F
  0.7952115286150132  0.1637527458546373  0.5124992135514859   F   F   F
  0.7903415416205419  0.6697429416363505  0.6823585501257696   F   F   F
  0.7911478369517866  0.6673528656492778  0.5130387022566012   F   F   F
  0.9302184553406678  0.8058846641299999  0.7170677001089509   T   T   T

  0.00000000E+00  0.00000000E+00  0.00000000E+00
  0.00000000E+00  0.00000000E+00  0.00000000E+00
  0.00000000E+00  0.00000000E+00  0.00000000E+00
  0.00000000E+00  0.00000000E+00  0.00000000E+00
  0.00000000E+00  0.00000000E+00  0.00000000E+00
  0.00000000E+00  0.00000000E+00  0.00000000E+00
  0.00000000E+00  0.00000000E+00  0.00000000E+00
  0.00000000E+00  0.00000000E+00  0.00000000E+00
  0.00000000E+00  0.00000000E+00  0.00000000E+00
  0.00000000E+00  0.00000000E+00  0.00000000E+00
  0.00000000E+00  0.00000000E+00  0.00000000E+00
  0.00000000E+00  0.00000000E+00  0.00000000E+00
  0.00000000E+00  0.00000000E+00  0.00000000E+00
  0.00000000E+00  0.00000000E+00  0.00000000E+00
  0.00000000E+00  0.00000000E+00  0.00000000E+00
  0.00000000E+00  0.00000000E+00  0.00000000E+00
  0.00000000E+00  0.00000000E+00  0.00000000E+00
  0.00000000E+00  0.00000000E+00  0.00000000E+00
  0.00000000E+00  0.00000000E+00  0.00000000E+00
  0.00000000E+00  0.00000000E+00  0.00000000E+00
  0.00000000E+00  0.00000000E+00  0.00000000E+00
  0.00000000E+00  0.00000000E+00  0.00000000E+00
  0.00000000E+00  0.00000000E+00  0.00000000E+00
  0.00000000E+00  0.00000000E+00  0.00000000E+00
  0.00000000E+00  0.00000000E+00  0.00000000E+00
  0.00000000E+00  0.00000000E+00  0.00000000E+00
  0.00000000E+00  0.00000000E+00  0.00000000E+00
  0.00000000E+00  0.00000000E+00  0.00000000E+00
  0.00000000E+00  0.00000000E+00  0.00000000E+00
  0.00000000E+00  0.00000000E+00  0.00000000E+00
  0.00000000E+00  0.00000000E+00  0.00000000E+00
  0.00000000E+00  0.00000000E+00  0.00000000E+00
  0.00000000E+00  0.00000000E+00  0.00000000E+00
  0.00000000E+00  0.00000000E+00  0.00000000E+00
  0.00000000E+00  0.00000000E+00  0.00000000E+00
  0.00000000E+00  0.00000000E+00  0.00000000E+00
  0.00000000E+00  0.00000000E+00  0.00000000E+00
  0.00000000E+00  0.00000000E+00  0.00000000E+00
  0.00000000E+00  0.00000000E+00  0.00000000E+00
  0.00000000E+00  0.00000000E+00  0.00000000E+00
  0.00000000E+00  0.00000000E+00  0.00000000E+00
  0.00000000E+00  0.00000000E+00  0.00000000E+00
  0.00000000E+00  0.00000000E+00  0.00000000E+00
  0.00000000E+00  0.00000000E+00  0.00000000E+00
  0.00000000E+00  0.00000000E+00  0.00000000E+00
  0.00000000E+00  0.00000000E+00  0.00000000E+00
  0.00000000E+00  0.00000000E+00  0.00000000E+00
  0.00000000E+00  0.00000000E+00  0.00000000E+00
  0.00000000E+00  0.00000000E+00  0.00000000E+00
