 2 Mo0.5b2                              
1.0
        6.0780000687         0.0000000000         0.0000000000
       -3.0390007352         5.2637020590         0.0000000000
        0.0000000000         0.0000000000        22.2199993134
   Mo    V    B    H
    8    6   40    2
Cartesian
     6.071810722         0.000755938         4.577756405
     6.054638863         0.012298459        10.731563568
     3.035689592         5.262720585         1.539553046
     6.075565338         0.002743443         7.695047379
     1.515949249         2.630555630         4.577426910
     1.522263408         2.629317999        10.731789589
     1.516650796         2.630826712         1.539616585
     1.508897781         2.640028000         7.694829464
     4.555080414         2.630234957         1.558136225
     4.550504208         2.633161783         7.663664341
     3.034813881         0.000337782         4.596594334
     3.027471066         0.003541289        10.770667076
    -0.003084421         5.263185978         1.530397654
    -0.016157866         5.253692150         7.686286449
    -0.010599852         1.758549333        22.149065018
    -0.021134853         1.762092710        12.279719353
    -0.050185084         1.778017163         6.105267048
    -0.050065279         1.781497955         3.073681116
    -0.062935293         1.787908435         9.267445564
     3.044508934         3.503818989        22.149166107
     3.032356977         3.508196115        12.285142899
     3.073293924         3.483730078         6.106230259
     3.083043098         3.481755257         3.074479580
     3.082137108         3.481410742         9.268321991
     1.510166168         4.390412331        22.153772354
     1.497726440         4.397257805        12.271387100
     1.488262653         4.401640892         6.122128963
     1.485116959         4.403465748         3.036199331
     1.478695869         4.408289909         9.204074860
     1.524330616         0.873153150        22.153755188
     1.517252445         0.876745462        12.272543907
     1.537300587         0.864108980         6.122697353
     1.546926141         0.858668089         3.036390066
     1.541487813         0.863551378         9.204767227
    -1.513207197         4.379507542        22.175714493
    -1.520964622         4.394383907        12.325563431
    -1.506812096         4.360758305         6.105909348
    -1.501156330         4.358582020         3.066252947
    -1.508598089         4.361742020         9.258309364
     4.547370911         0.883579433        22.174924850
     4.539624691         0.900151312        12.274327278
     4.531341553         0.901959896         6.103840828
     4.533801079         0.903902352         3.067487955
     4.528168201         0.913338721         9.267187119
     3.046719551         1.750007272        22.175041199
     3.045405626         1.761950970        12.277678490
     3.063119173         1.749399543         6.104876518
     3.069899559         1.749254584         3.067898750
     3.067872524         1.756611824         9.267433167
    -0.012343407         3.513004303        22.175613403
    -0.016156435         3.524834394        12.321110725
    -0.039190769         3.513413906         6.104890823
    -0.037964463         3.513893843         3.065715075
    -0.044563890         3.516227722         9.257355690
    -0.775660872         3.939872742        13.366823196
	 4.045405626         1.361950970        13.277678490
	
	
