MoB2                                    
   1.0000000000000000     
     8.6453199387000002    0.0000000000000000    0.0000000000000000
    -2.1414606584000002    5.6957327634999997    0.0000000000000000
    -0.2384319305000000   -9.8409511943000005   23.9952660313000017
   Mo   V    B 
    12     4    32
Direct
  0.9938210321083466  0.4921685242711337  0.6629583222561535
  0.0028379361694725  0.5024267392464393  0.5004509101785704
  0.4938210141771398  0.9921685912949957  0.6629583222561535
  0.5028379182382656  0.0024268062703012  0.5004509101785704
  0.2543442947867621  0.0079389623093284  0.4204519788820599
  0.2497819773046941  0.0002272554033210  0.5829447559945707
  0.2548644574566593  0.5078282918126560  0.4203553130278102
  0.2492068702654016  0.4977022209557087  0.5827837127858334
  0.7548644395254525  0.0078283588365180  0.4203553130278102
  0.7492068523341878  0.9977022879795706  0.5827837127858334
  0.7543443198085175  0.5079388952854663  0.4204519788820599
  0.7497818866569204  0.5002271883794590  0.5829447559945707
  0.0010321878701078  0.0023098124283872  0.5014071476104516
  0.5010322128918561  0.5023097454045253  0.5014071476104516
  0.9951931785174506  0.9901636244703030  0.6621534350526066
  0.4951932035391988  0.4901635574464410  0.6621534350526066
  0.4575189361463396  0.3307094769547065  0.4011993882775209
  0.4599937974798162  0.3370333970500888  0.5702220711663536
  0.4567228363888237  0.8270033492034700  0.3991429454582129
  0.4597275471533961  0.8329391308869055  0.5700396620875450
  0.9567229341271317  0.3270034162273320  0.3991429454582129
  0.9597276448917113  0.3329391979107675  0.5700396620875450
  0.9575189611680807  0.8307094099308444  0.4011993882775209
  0.9599939381710864  0.8370333300262268  0.5702220711663536
  0.2056805278642085  0.3283488656922716  0.4847465845414424
  0.2100037203482585  0.3556670566047885  0.6680112364450675
  0.2038558545120951  0.8308839386948533  0.4846669928163316
  0.2090877841839620  0.8695889214040173  0.6758595967014770
  0.7038557930918857  0.3308838301486785  0.4846669928163316
  0.7090878819222701  0.3695889884278793  0.6758595967014770
  0.7056805963749594  0.8283489742384462  0.4847465845414424
  0.7100036297004917  0.8556669895809262  0.6680112364450675
  0.0393315993261852  0.1355708601606279  0.4106207084159035
  0.0441090852276207  0.1679313534413147  0.5988685428105712
  0.0390107795237284  0.6379929782032268  0.4122964383899945
  0.0449488051718463  0.6749998691702723  0.5997604676906113
  0.5390107615925217  0.1379930452270817  0.4122964383899945
  0.5449487872406324  0.1749999361941343  0.5997604676906113
  0.5393316243479404  0.6355707931367730  0.4106207084159035
  0.5441089945798541  0.6679312864174526  0.5988685428105712
  0.2903416560466270  0.1697430734167944  0.6823585811666835
  0.2911479495734375  0.1673528961696005  0.5130386799785598
  0.2922257439142655  0.6697171727900205  0.6831630345932269
  0.2952116478910727  0.6637526266272157  0.5124992266656098
  0.7922256103135368  0.1697172398138823  0.6831630345932269
  0.7952115142903439  0.1637526936510778  0.5124992266656098
  0.7903415653988531  0.6697430063929323  0.6823585811666835
  0.7911478589256709  0.6673528291457386  0.5130386799785598

  0.00000000E+00  0.00000000E+00  0.00000000E+00
  0.00000000E+00  0.00000000E+00  0.00000000E+00
  0.00000000E+00  0.00000000E+00  0.00000000E+00
  0.00000000E+00  0.00000000E+00  0.00000000E+00
  0.00000000E+00  0.00000000E+00  0.00000000E+00
  0.00000000E+00  0.00000000E+00  0.00000000E+00
  0.00000000E+00  0.00000000E+00  0.00000000E+00
  0.00000000E+00  0.00000000E+00  0.00000000E+00
  0.00000000E+00  0.00000000E+00  0.00000000E+00
  0.00000000E+00  0.00000000E+00  0.00000000E+00
  0.00000000E+00  0.00000000E+00  0.00000000E+00
  0.00000000E+00  0.00000000E+00  0.00000000E+00
  0.00000000E+00  0.00000000E+00  0.00000000E+00
  0.00000000E+00  0.00000000E+00  0.00000000E+00
  0.00000000E+00  0.00000000E+00  0.00000000E+00
  0.00000000E+00  0.00000000E+00  0.00000000E+00
  0.00000000E+00  0.00000000E+00  0.00000000E+00
  0.00000000E+00  0.00000000E+00  0.00000000E+00
  0.00000000E+00  0.00000000E+00  0.00000000E+00
  0.00000000E+00  0.00000000E+00  0.00000000E+00
  0.00000000E+00  0.00000000E+00  0.00000000E+00
  0.00000000E+00  0.00000000E+00  0.00000000E+00
  0.00000000E+00  0.00000000E+00  0.00000000E+00
  0.00000000E+00  0.00000000E+00  0.00000000E+00
  0.00000000E+00  0.00000000E+00  0.00000000E+00
  0.00000000E+00  0.00000000E+00  0.00000000E+00
  0.00000000E+00  0.00000000E+00  0.00000000E+00
  0.00000000E+00  0.00000000E+00  0.00000000E+00
  0.00000000E+00  0.00000000E+00  0.00000000E+00
  0.00000000E+00  0.00000000E+00  0.00000000E+00
  0.00000000E+00  0.00000000E+00  0.00000000E+00
  0.00000000E+00  0.00000000E+00  0.00000000E+00
  0.00000000E+00  0.00000000E+00  0.00000000E+00
  0.00000000E+00  0.00000000E+00  0.00000000E+00
  0.00000000E+00  0.00000000E+00  0.00000000E+00
  0.00000000E+00  0.00000000E+00  0.00000000E+00
  0.00000000E+00  0.00000000E+00  0.00000000E+00
  0.00000000E+00  0.00000000E+00  0.00000000E+00
  0.00000000E+00  0.00000000E+00  0.00000000E+00
  0.00000000E+00  0.00000000E+00  0.00000000E+00
  0.00000000E+00  0.00000000E+00  0.00000000E+00
  0.00000000E+00  0.00000000E+00  0.00000000E+00
  0.00000000E+00  0.00000000E+00  0.00000000E+00
  0.00000000E+00  0.00000000E+00  0.00000000E+00
  0.00000000E+00  0.00000000E+00  0.00000000E+00
  0.00000000E+00  0.00000000E+00  0.00000000E+00
  0.00000000E+00  0.00000000E+00  0.00000000E+00
  0.00000000E+00  0.00000000E+00  0.00000000E+00
