MoB2                                    
   1.0000000000000000     
    10.5395298004000004    0.0000000000000000    0.0000000000000000
     0.0000000000000000    6.1412000655999996    0.0000000000000000
     0.0000000000000000    0.0000000000000000   24.1275005341000011
   Mo   V    B    H 
    15     6    48     2
Selective dynamics
Direct
  0.0000000000000000  0.0000000000000000  0.1261009300445366   F   F   F
  0.9992025975970625  0.4982153484439455  0.2512043905566120   T   T   T
  0.4999999999810214  0.0000000000000000  0.0000000000000000   F   F   F
  0.5004897718505552  0.0007524544402203  0.2534193741625207   T   T   T
  0.4999999999810214  0.5000000000325642  0.1261009300445366   F   F   F
  0.2499999547323242  0.0000000000000000  0.0630504650429913   F   F   F
  0.2499999547323242  0.0000000000000000  0.1891513901553949   F   F   F
  0.2519580788295148  0.0013209759890010  0.3092979098665716   T   T   T
  0.2499999547323242  0.5000000000325642  0.0630504650429913   F   F   F
  0.2513314654249081  0.4999337036324529  0.3105831563686294   T   T   T
  0.7499999547133527  0.0000000000000000  0.1891513901553949   F   F   F
  0.7503657116001118  0.0019843761434981  0.3099166487549703   T   T   T
  0.7499999547133527  0.5000000000325642  0.0630504650429913   F   F   F
  0.7499999547133527  0.5000000000325642  0.1891513901553949   F   F   F
  0.7503707646897434  0.5009356251193113  0.3109231569272721   T   T   T
  0.0000000000000000  0.0000000000000000  0.0000000000000000   F   F   F
  0.4999999999810214  0.5000000000325642  0.0000000000000000   F   F   F
  0.0000000000000000  0.5000000000325642  0.1261009300445366   F   F   F
  0.4999999999810214  0.0000000000000000  0.1261009300445366   F   F   F
 -0.0014827220595474  0.0016368138714762  0.2519344148800246   T   T   T
  0.5009754459209712  0.5004678790621064  0.2502596050056980   T   T   T
  0.0833333182441081  0.2499999999348645  0.0630504650429913   F   F   F
  0.0833333182441081  0.2499999999348645  0.1891513901553949   F   F   F
  0.0818281500544227  0.2421828405203886  0.3164374228673886   T   T   T
  0.0833333182441081  0.7499999612127937  0.0630504650429913   F   F   F
  0.0833333182441081  0.7499999612127937  0.1891513901553949   F   F   F
  0.0775619333116943  0.7668897470459336  0.3175940357736867   T   T   T
  0.5833333182251295  0.2499999999348645  0.0630504650429913   F   F   F
  0.5833333182251295  0.2499999999348645  0.1891513901553949   F   F   F
  0.5796314914134126  0.2542025915601789  0.3179265830125187   T   T   T
  0.5833333182251295  0.7499999612127937  0.0630504650429913   F   F   F
  0.5833333182251295  0.7499999612127937  0.1891513901553949   F   F   F
  0.5756799560247179  0.7368741854482541  0.3195860018237531   T   T   T
  0.3333333634928053  0.2499999999348645  0.0000000000000000   F   F   F
  0.3333333634928053  0.2499999999348645  0.1261009300445366   F   F   F
  0.3329662137169095  0.2677594510075840  0.2515887852135841   T   T   T
  0.3333333634928053  0.7499999612127937  0.0000000000000000   F   F   F
  0.3333333634928053  0.7499999612127937  0.1261009300445366   F   F   F
  0.3326571732136628  0.7343036503571165  0.2508432690664416   T   T   T
  0.8333333634738267  0.2499999999348645  0.0000000000000000   F   F   F
  0.8333333634738267  0.2499999999348645  0.1261009300445366   F   F   F
  0.8362169371001907  0.2444648559459316  0.2548505922287682   T   T   T
  0.8333333634738267  0.7499999612127937  0.0000000000000000   F   F   F
  0.8333333634738267  0.7499999612127937  0.1261009300445366   F   F   F
  0.8353124914742508  0.7539243140182207  0.2540820849013686   T   T   T
  0.4166666817369133  0.2499999999348645  0.0630504650429913   F   F   F
  0.4150203707091963  0.2587256434714316  0.1894315568846599   T   T   T
  0.4181418756582867  0.2569444768562895  0.3175226112837641   T   T   T
  0.4166666817369133  0.7499999612127937  0.0630504650429913   F   F   F
  0.4166666817369133  0.7499999612127937  0.1891513901553949   F   F   F
  0.4154931351999808  0.7442371020620184  0.3160669227817859   T   T   T
  0.9166666817179419  0.2499999999348645  0.0630504650429913   F   F   F
  0.9166666817179419  0.2499999999348645  0.1891513901553949   F   F   F
  0.9210779203296854  0.2404885882444843  0.3193021820758690   T   T   T
  0.9206274083488643  0.7438362869620730  0.0593536127678701   T   T   T
  0.9166666817179419  0.7499999612127937  0.1891513901553949   F   F   F
  0.9180902355735724  0.7594703045630165  0.3175957244079925   T   T   T
  0.1666666364882161  0.2499999999348645  0.0000000000000000   F   F   F
  0.1666666364882161  0.2499999999348645  0.1261009300445366   F   F   F
  0.1665098794700118  0.2574242981506283  0.2516085523435841   T   T   T
  0.1666666364882161  0.7499999612127937  0.0000000000000000   F   F   F
  0.1666666364882161  0.7499999612127937  0.1261009300445366   F   F   F
  0.1655654811931948  0.7446203898553387  0.2524715682378337   T   T   T
  0.6666666364692446  0.2499999999348645  0.0000000000000000   F   F   F
  0.6666666364692446  0.2499999999348645  0.1261009300445366   F   F   F
  0.6640133333887794  0.2554531632218677  0.2542953351130457   T   T   T
  0.6666666364692446  0.7499999612127937  0.0000000000000000   F   F   F
  0.6666666364692446  0.7499999612127937  0.1261009300445366   F   F   F
  0.6626437481138828  0.7460082411484205  0.2552793279292975   T   T   T
  0.6304357550356953  0.6568250606020934  0.3626345546137816   T   T   T
  0.1377608454494027  0.8317391424141299  0.3608261531141344   T   T   T

  0.00000000E+00  0.00000000E+00  0.00000000E+00
  0.00000000E+00  0.00000000E+00  0.00000000E+00
  0.00000000E+00  0.00000000E+00  0.00000000E+00
  0.00000000E+00  0.00000000E+00  0.00000000E+00
  0.00000000E+00  0.00000000E+00  0.00000000E+00
  0.00000000E+00  0.00000000E+00  0.00000000E+00
  0.00000000E+00  0.00000000E+00  0.00000000E+00
  0.00000000E+00  0.00000000E+00  0.00000000E+00
  0.00000000E+00  0.00000000E+00  0.00000000E+00
  0.00000000E+00  0.00000000E+00  0.00000000E+00
  0.00000000E+00  0.00000000E+00  0.00000000E+00
  0.00000000E+00  0.00000000E+00  0.00000000E+00
  0.00000000E+00  0.00000000E+00  0.00000000E+00
  0.00000000E+00  0.00000000E+00  0.00000000E+00
  0.00000000E+00  0.00000000E+00  0.00000000E+00
  0.00000000E+00  0.00000000E+00  0.00000000E+00
  0.00000000E+00  0.00000000E+00  0.00000000E+00
  0.00000000E+00  0.00000000E+00  0.00000000E+00
  0.00000000E+00  0.00000000E+00  0.00000000E+00
  0.00000000E+00  0.00000000E+00  0.00000000E+00
  0.00000000E+00  0.00000000E+00  0.00000000E+00
  0.00000000E+00  0.00000000E+00  0.00000000E+00
  0.00000000E+00  0.00000000E+00  0.00000000E+00
  0.00000000E+00  0.00000000E+00  0.00000000E+00
  0.00000000E+00  0.00000000E+00  0.00000000E+00
  0.00000000E+00  0.00000000E+00  0.00000000E+00
  0.00000000E+00  0.00000000E+00  0.00000000E+00
  0.00000000E+00  0.00000000E+00  0.00000000E+00
  0.00000000E+00  0.00000000E+00  0.00000000E+00
  0.00000000E+00  0.00000000E+00  0.00000000E+00
  0.00000000E+00  0.00000000E+00  0.00000000E+00
  0.00000000E+00  0.00000000E+00  0.00000000E+00
  0.00000000E+00  0.00000000E+00  0.00000000E+00
  0.00000000E+00  0.00000000E+00  0.00000000E+00
  0.00000000E+00  0.00000000E+00  0.00000000E+00
  0.00000000E+00  0.00000000E+00  0.00000000E+00
  0.00000000E+00  0.00000000E+00  0.00000000E+00
  0.00000000E+00  0.00000000E+00  0.00000000E+00
  0.00000000E+00  0.00000000E+00  0.00000000E+00
  0.00000000E+00  0.00000000E+00  0.00000000E+00
  0.00000000E+00  0.00000000E+00  0.00000000E+00
  0.00000000E+00  0.00000000E+00  0.00000000E+00
  0.00000000E+00  0.00000000E+00  0.00000000E+00
  0.00000000E+00  0.00000000E+00  0.00000000E+00
  0.00000000E+00  0.00000000E+00  0.00000000E+00
  0.00000000E+00  0.00000000E+00  0.00000000E+00
  0.00000000E+00  0.00000000E+00  0.00000000E+00
  0.00000000E+00  0.00000000E+00  0.00000000E+00
  0.00000000E+00  0.00000000E+00  0.00000000E+00
  0.00000000E+00  0.00000000E+00  0.00000000E+00
  0.00000000E+00  0.00000000E+00  0.00000000E+00
  0.00000000E+00  0.00000000E+00  0.00000000E+00
  0.00000000E+00  0.00000000E+00  0.00000000E+00
  0.00000000E+00  0.00000000E+00  0.00000000E+00
  0.00000000E+00  0.00000000E+00  0.00000000E+00
  0.00000000E+00  0.00000000E+00  0.00000000E+00
  0.00000000E+00  0.00000000E+00  0.00000000E+00
  0.00000000E+00  0.00000000E+00  0.00000000E+00
  0.00000000E+00  0.00000000E+00  0.00000000E+00
  0.00000000E+00  0.00000000E+00  0.00000000E+00
  0.00000000E+00  0.00000000E+00  0.00000000E+00
  0.00000000E+00  0.00000000E+00  0.00000000E+00
  0.00000000E+00  0.00000000E+00  0.00000000E+00
  0.00000000E+00  0.00000000E+00  0.00000000E+00
  0.00000000E+00  0.00000000E+00  0.00000000E+00
  0.00000000E+00  0.00000000E+00  0.00000000E+00
  0.00000000E+00  0.00000000E+00  0.00000000E+00
  0.00000000E+00  0.00000000E+00  0.00000000E+00
  0.00000000E+00  0.00000000E+00  0.00000000E+00
  0.00000000E+00  0.00000000E+00  0.00000000E+00
  0.00000000E+00  0.00000000E+00  0.00000000E+00
