 2 Mo0.5b2                              
   1.0000000000000000     
     6.0776544107011823   -0.0045413744346532   -0.0000365874106917
    -3.0427606737361552    5.2610799333150124    0.0000233899966370
    -0.0000332461708810    0.0000065401557226    6.1750240344086018
   Mo   V    B 
     4     3    16
Direct
 -0.0003395360862637 -0.0000292023533750  0.0108921413476313
 -0.0003085198035027 -0.0000194420049762  0.5111626965087606
  0.4996715667795291  0.4999769644876418  0.0108969242031444
  0.4997069821585203  0.4999762498432729  0.5111615104614605
  0.9996386315041602  0.4999635864393330  0.5112995213772105
  0.4996534271852963 -0.0000078945502433  0.0112545151548507
  0.4997028347470630 -0.0000141359665993  0.5109590601954349
  0.1611322015696943  0.3385244789978353  0.2563841287136325
  0.1609925640984450  0.3386697063376258  0.7662187972092490
  0.8382328947101773  0.6614351362606252  0.2563584185701965
  0.8383751096641050  0.6612934621310246  0.7662478085745337
  0.6634020562256360  0.8362534093026658  0.2613432365514933
  0.6633989383801960  0.8362611233047869  0.7605222360332664
  0.3359548917218357  0.1637072618822349  0.2613546661689177
  0.3359653914032889  0.1636970238751775  0.7605139367093924
  0.1670306029326304  0.8279067123584980  0.2568958901517886
  0.1671469023367467  0.8278714663328128  0.7654971326429826
  0.8323304493666521  0.1720528393175596  0.2568802690521407
  0.8322213732427487  0.1720904487944187  0.7655085356443108
  0.6717563762692976  0.3326459058247143  0.2568643955573886
  0.6717996339008563  0.3325425581541044  0.7655302801404413
  0.3275982306548387  0.6673123635188446  0.2568921191933756
  0.3275696744223915  0.6674181499998418  0.7654911793157992

  0.00000000E+00  0.00000000E+00  0.00000000E+00
  0.00000000E+00  0.00000000E+00  0.00000000E+00
  0.00000000E+00  0.00000000E+00  0.00000000E+00
  0.00000000E+00  0.00000000E+00  0.00000000E+00
  0.00000000E+00  0.00000000E+00  0.00000000E+00
  0.00000000E+00  0.00000000E+00  0.00000000E+00
  0.00000000E+00  0.00000000E+00  0.00000000E+00
  0.00000000E+00  0.00000000E+00  0.00000000E+00
  0.00000000E+00  0.00000000E+00  0.00000000E+00
  0.00000000E+00  0.00000000E+00  0.00000000E+00
  0.00000000E+00  0.00000000E+00  0.00000000E+00
  0.00000000E+00  0.00000000E+00  0.00000000E+00
  0.00000000E+00  0.00000000E+00  0.00000000E+00
  0.00000000E+00  0.00000000E+00  0.00000000E+00
  0.00000000E+00  0.00000000E+00  0.00000000E+00
  0.00000000E+00  0.00000000E+00  0.00000000E+00
  0.00000000E+00  0.00000000E+00  0.00000000E+00
  0.00000000E+00  0.00000000E+00  0.00000000E+00
  0.00000000E+00  0.00000000E+00  0.00000000E+00
  0.00000000E+00  0.00000000E+00  0.00000000E+00
  0.00000000E+00  0.00000000E+00  0.00000000E+00
  0.00000000E+00  0.00000000E+00  0.00000000E+00
  0.00000000E+00  0.00000000E+00  0.00000000E+00
